342
Lattice="15.07779 0.0 0.0 0.0 15.07779 0.0 0.0 0.0 15.07779" Properties=species:S:1:pos:R:3 pbc="T T T"
Cu       6.34284606       7.99241536       6.58908008
O        4.94803396       6.45614025       6.22556372
H        5.55735551       5.64477485       6.31706461
H        7.51329946      10.23745171       6.19445532
O        7.52078083       9.70756816       7.02798193
H        4.27893904       6.22601616       6.95646228
H        8.85123649       7.34060192       6.19759248
O        7.94141645       6.98097798       5.83461451
H        8.14534466       7.12541881       4.81530168
H        4.27517129       9.51872270       7.05063147
O        4.64788092       8.74701658       7.53908587
H        8.37984189       9.23239072       7.02508418
H        4.88484025       9.18655857       8.39255546
O        7.80947671       8.02232588       9.80171744
H        8.13612176       8.92813077      10.01421008
H        8.55919201       7.38015494      10.04493604
O        6.76828004      10.95414541       5.02930789
H        5.84691127      10.93398354       5.34521000
H        6.61182691      10.87302141       4.05556218
Cl      10.08245429       2.18746290       7.55796160
Cl      -1.49454795       2.16135996       2.48535661
O       14.64877228       1.63708978      14.59689240
H       14.64583210       2.19051975      15.47178287
H       13.83846686       1.11846824      14.67724482
O        5.69655379      11.43231640      10.99960045
H        5.40702676      11.88866160      11.84247186
H        6.48276473      11.94618508      10.72207687
O        9.09437089       4.72518224      13.33067090
H        9.16118090       5.51006192      13.94503826
H        8.58369268       4.03270723      13.78705739
O        4.41386485       3.95908690       1.40758576
H        4.76415392       3.23997735       0.80964799
H        5.25556838       4.52246772       1.54810531
O       11.71212677       4.27694017      16.10272399
H       10.84563029       3.89214071      15.82918205
H       12.30089416       3.49785773      16.30681192
O       10.21467444       1.00862216      13.53562963
H        9.67688909       1.47023430      14.22944982
H       10.61370263       1.67731476      12.92036089
O        9.00024059       9.43918119       0.22171333
H        8.49407899       9.38942931       1.08435205
H        9.78818223      10.00712455       0.43748463
O        8.15331530      12.68281540       1.90848598
H        7.56864403      13.48525911       2.08864038
H        7.67865788      11.89666957       2.24860495
O       11.02178573      10.33023968       1.56687789
H       11.99226672      10.19093987       1.62070039
H       10.80723854      10.91398541       2.36523604
O       10.00778357      -0.28828941      17.57473344
H        9.84466606      -0.03738829      18.52897562
H        9.22614806       0.14745348      17.14478761
O        6.15232620       4.49087841       7.40003610
H        7.08341183       4.76446385       7.64252499
H        6.16780747       3.51401930       6.88625506
O        5.40005014       9.00092661      12.62103754
H        4.79415280       9.27752674      13.34708260
H        5.78039321       9.82783818      12.27257925
O       -0.50672021       6.75567616       6.59798151
H       -0.13644747       6.05670036       7.22713531
H       -0.25304114       6.56018787       5.67499066
O        2.03371672      12.87501325       4.63236192
H        2.05550785      12.83869114       3.63771024
H        1.27547415      13.49731808       4.74384462
O       -3.69962319       2.15773380      11.39950791
H       -3.89350073       3.03996185      10.94022331
H       -2.65054774       2.10011822      11.47471264
O       15.03061395      14.66816084       4.23436305
H       14.21851138      14.23679956       4.66595257
H       15.19835349      15.42852773       4.83116079
O        2.98013153      15.22557457      15.44993678
H        3.77404334      15.69668521      15.79155888
H        2.29139271      15.27126773      16.17761359
O       11.39162595      10.97821836       8.59558729
H       10.48634812      10.83392340       8.30298260
H       11.20551395      11.45232005       9.49026089
O        9.20149174      11.95950954      12.25003375
H       10.09106560      12.30681822      12.38820838
H        8.84620746      11.84100978      13.11806635
O       12.54807360       5.86156222       3.49521346
H       13.39459516       6.25704404       3.13543671
H       12.34737295       5.48099134       2.58248838
O       13.63294043      11.37912858       2.22786988
H       13.62345738      10.92173816       3.09377937
H       13.20856893      12.28437253       2.29069164
O       -0.15605826       7.08800065       3.92838686
H        0.51133485       7.83468818       4.01691244
H        0.36705395       6.50569707       3.30721432
O       11.56803154      12.54316446      10.78303710
H       11.31556007      13.45008015      10.52936844
H       12.38753994      12.69001883      11.30208570
O       11.65287846       7.17358565       9.75611602
H       11.45555637       6.35276370       9.24192235
H       12.12903915       7.74106977       9.10293984
O        5.15823570       1.88476030      14.77945186
H        5.51353625       1.01195721      14.54360960
H        4.31815640       2.09088721      14.27622225
O        8.97786209       3.36521290       1.35456580
H        9.32442511       3.38426649       2.25049095
H        8.33168598       4.17951262       1.35703423
O        6.95013747       1.89669012       6.59873651
H        7.89614685       2.03892275       6.83934111
H        6.95850302       1.70120832       5.60789766
O       15.03818942       5.31521966       2.00615817
H       15.97039902       5.22976590       1.61616652
H       14.86915794       4.39470514       2.19959052
O        8.15172354       0.35869744       9.11055567
H        8.82246972       0.08335796       9.76319494
H        8.79572198       0.80258671       8.44362095
O       11.25987399       4.35277837       9.48912091
H       11.29977288       3.68420746       8.74992323
H       10.33488125       4.65524262       9.61705034
O       10.54937612       7.60914624       2.46633476
H       11.50137378       7.30223960       2.56790327
H       10.55693804       8.41835576       1.87842588
O        2.07411149       6.53485973       2.91407711
H        1.91030021       7.44233618       2.53716614
H        2.83998091       6.65624196       3.53284581
O       13.44287158       7.06353179      -2.57394151
H       13.89581460       6.60736040      -1.80506266
H       13.37400625       6.30192826      -3.21515548
O        0.03986426       8.73727930      11.38257926
H       -0.64411607       8.78338041      10.64493919
H       -0.44651887       8.04219131      11.93962843
O        0.73267963       8.87174470       7.42366940
H        0.92255715       7.94656725       7.07479685
H        1.52925343       9.05766475       7.90753723
O        2.15289737       7.45488038      11.02954085
H        2.37093488       7.07309028      10.13366863
H        1.26689570       7.93336461      10.89602700
O       13.38853157       9.13882168       8.99367094
H       12.75553542       9.77237096       8.53074878
H       14.18378033       8.91302210       8.40003360
O       12.52330500      14.93608217      14.29718771
H       12.47708552      14.70606213      15.27082184
H       11.69084779      15.42871127      14.07682999
O        7.45308626       2.56752498      13.47449064
H        6.54491011       2.60383334      13.80204363
H        7.52362907       2.57974919      12.50724275
O        3.18851098       4.50879601      10.17333902
H        2.46742937       4.86917792      10.72988119
H        3.90003777       4.94324085      10.63253656
O        6.01318764       4.76217222      11.00390307
H        6.10447323       4.98126100      12.00208716
H        6.28743794       3.78982416      10.93544886
O       14.20193307       2.96649508       7.17522723
H       14.76689644       3.58052725       7.73043746
H       14.85454017       2.69926444       6.46033082
O       17.28192020       2.94295035       2.61486015
H       17.74654284       3.78546905       2.35457315
H       17.98829376       2.28881478       2.40474524
O        9.92398290       5.63699956       4.28773880
H       10.03340128       4.77191485       3.88521422
H       10.83688129       6.07544382       4.25446470
O        4.90238447      10.61517634      -0.30200249
H        5.83268007      11.02379993      -0.37659980
H        4.81168637       9.98813616       0.49332332
O       12.50814453      11.31534436       6.41165681
H       12.55759345      12.16718148       5.85577883
H       12.68263153      11.53412080       7.35007011
O        9.61124887      10.01706686      10.57944328
H        9.56188001      10.85140316      11.08590661
H       10.06539339       9.31415905      11.09348891
O        9.78688223      11.21326904       5.86215054
H        9.25646489      11.96469784       6.18059440
H       10.69756204      11.16355102       6.23687444
O       -3.23119166       6.72081632       6.93129530
H       -2.19511905       6.78757836       6.99474958
H       -3.28597253       5.85686354       6.56612048
O        3.83214701      15.11546057       3.11872530
H        3.39136980      14.50150196       2.50695400
H        3.87765937      14.60765346       3.95773458
O        7.25203468       9.98581285       2.79823295
H        7.78175291       9.34098308       3.33425725
H        6.53239239       9.48501296       2.40887389
O        6.89656599       5.21841442       0.93009431
H        6.98890106       5.46271076      -0.04061508
H        7.33784752       5.96411821       1.39393130
O        7.16493795       4.67162755       4.93344872
H        7.37654802       3.89521025       4.37541148
H        7.74607913       4.60934262       5.79418787
O       18.32412170      10.11702378      11.30482682
H       18.02554941       9.18643791      11.45519713
H       19.30110445      10.08660722      11.43880917
O       12.43772070       0.09725485       7.09523075
H       13.40746018       0.34969917       7.31043419
H       12.02361074       1.00664039       7.09778182
O        1.68929236       5.12442917      -2.72295322
H        0.91679546       4.58772262      -2.48544499
H        1.29684426       6.12070046      -2.81690877
O        4.37037374      12.53840129      13.10131544
H        3.59067345      13.15976524      12.82258840
H        3.93756932      11.98781462      13.78134462
O       15.89566197      -0.19029458       1.68527007
H       15.44989072       0.38910853       1.02637936
H       15.52892764      -0.17934184       2.55913427
O       15.43447243      10.02393484       0.62174322
H       15.49764535      10.46191493      -0.26638296
H       14.99988130      10.77268107       1.20570207
O       10.98575201       7.76825709      12.29802332
H       11.76637263       7.86937241      12.88432287
H       11.27093486       7.46533417      11.44901714
O        0.44965524       5.06048928       8.88486402
H       -0.02980283       5.33308847       9.70693020
H        1.37072849       5.09250182       9.15422957
O        5.02787324       6.44453883       3.22282498
H        5.28693235       6.26949852       4.16233650
H        5.88710189       6.28997949       2.81654105
O        4.59549400       8.83611816       2.02849062
H        4.15663825       7.90556609       2.06919477
H        3.80938135       9.38340552       2.26185324
O        8.11415020       6.52971435       2.87975109
H        9.08116813       6.65870750       2.84390487
H        7.99873737       5.93889674       3.70196497
O        2.85397370      10.16419678       8.70857261
H        3.03554899      10.36623700       9.69476818
H        2.94729053      11.00738924       8.21119474
O        6.01543411      -0.43045057      14.26489239
H        5.38259647      -1.17177962      13.90156276
H        6.79007273      -0.65195959      13.66539008
O       13.69179458      13.75101074      12.31459055
H       13.19687686      14.06543718      13.11927747
H       14.35213809      13.12328659      12.60577484
O        6.28114759      -1.01782487       7.97987076
H        6.07361086      -0.21559973       7.43755179
H        6.93101088      -0.67603787       8.65787352
O        6.92159301      15.07395096       2.67879460
H        6.99625109      15.49756706       1.77057284
H        5.91652693      14.95236135       2.80295560
O        4.42014998      -4.15490673       6.08742647
H        4.54605594      -3.49497760       6.72166466
H        3.51150653      -4.04911063       5.80159666
O       13.68633294       5.05070182      10.78442882
H       12.79489419       4.92875373      10.33536655
H       13.83141291       4.39980198      11.49949110
O       10.56740083      14.98222210      10.19536266
H       10.73411714      15.68949934      10.84466107
H       11.20754693      15.22435651       9.46773328
O       10.78538733      12.44775191       3.35541961
H       10.27188252      12.33848567       4.13626213
H       10.19528301      12.99793485       2.73937583
O        3.45265562       6.23475548       8.12602070
H        4.23138311       6.59658209       8.68201161
H        3.44993878       5.27952761       8.50858465
O        2.14748806       9.27140537       2.70955052
H        1.98318229       9.62720546       3.61567866
H        1.70059564       9.71209820       1.93116590
O        9.68655729       8.15251125       7.23933837
H       10.56470137       7.96453746       6.89102851
H        9.69777820       7.84930776       8.15329319
O        9.03748883       7.15046687      13.88917490
H        9.69534667       7.27801090      13.15753583
H        9.14020221       7.87905663      14.51446971
O        7.84139258      12.98990547       6.18556136
H        7.19552404      13.15041985       6.92246671
H        7.41545591      12.50614329       5.41303168
O        8.34700649       0.86341453      15.59118361
H        7.63174438       0.97552798      14.94041774
H        8.39801830       1.81074538      15.87475383
O       12.20610917       4.47230314       5.73373684
H       12.85045795       3.89765375       6.17729827
H       12.71201394       4.85187348       4.94643482
O        1.93934248       1.80809983      11.07401619
H        2.76680807       2.21276422      10.68016767
H        2.04638215       2.07421409      12.00799490
O        7.91365840      14.72713789      12.41850445
H        8.46838854      13.93940497      12.20620031
H        8.58281836      15.41695740      12.75604987
O        8.20031693       2.08756936       3.80057746
H        9.15615362       1.97636384       3.92281467
H        7.82201185       1.24035252       3.59391987
O       -0.88233932       1.28031122      -3.70007257
H       -0.82944850       0.33601446      -3.33850085
H       -0.00516615       1.40182775      -4.14877953
O        4.37444006      12.40645618       8.51429405
H        4.45526104      13.32636136       8.75637542
H        4.57561421      12.03031023       9.42718978
O        2.37237261      12.57912364       1.47392122
H        1.53354010      13.10969021       1.39810266
H        2.92460590      12.83972048       0.71263778
O       12.61273062      13.62544221       4.94572181
H       11.77330559      14.10963828       5.30828004
H       12.25334542      13.29119982       4.09372978
O        2.46013133      17.42340068      -1.34651157
H        2.05659658      18.29032362      -1.05608395
H        2.01925098      16.79297582      -0.75806658
O       -0.59869020       3.66783383      12.88762268
H       -0.94825016       3.93731738      13.77199215
H       -0.39959920       2.73388919      12.83457106
O       15.68589239       2.29666438       4.75974690
H       16.57577739       2.42276046       4.26319565
H       14.87134293       2.49825742       4.18970454
O        0.31412354      11.25669354      12.72101547
H        1.26687541      11.21425379      12.46955754
H       -0.06096218      10.50921304      12.14174346
O        9.00326146       9.00307073       4.45211679
H        9.82219839       8.51433739       3.97771872
H        9.45930029       9.81967747       4.77934272
O        2.41849153      14.22695770      12.96325891
H        2.42939140      14.47735393      13.91105075
H        2.41447623      15.08713754      12.50479627
O       13.30576590       7.83993064       1.51277558
H       13.61396027       7.41233970       0.67525708
H       13.87472176       8.59535296       1.72606431
O        1.84591286      10.39245091       5.39396617
H        1.64812516      11.33575859       5.25253670
H        1.19216106      10.02562097       6.07276516
O        9.05981648       5.15689966      10.55770271
H        8.08991173       5.23272468      10.50681706
H        9.22825409       4.82945881      11.51475022
O        7.75756098      11.70505863      14.36023787
H        8.12980087      12.32602620      15.06490711
H        8.08888854      10.76483487      14.61589429
O        7.53774709       2.57158131      10.46276424
H        8.40053245       2.89866320      10.24578301
H        7.51769594       1.73436123       9.90470247
O       12.57679927      -0.68235684      16.94877122
H       11.65375513      -0.54743147      17.27635937
H       13.07609264      -0.03835737      17.53926234
O        6.42493528       6.50703110      12.94953841
H        6.02296034       7.43499906      12.76784560
H        7.40410634       6.71718985      12.99647777
O       -1.97803698       9.44012705       4.42143725
H       -1.63606761       8.58026419       4.46193622
H       -2.12393749       9.82871776       5.31325164
O        9.89452998      14.71209745       5.19861631
H        9.22437929      14.04376911       5.61902558
H        9.90001944      15.50117032       5.76462165
O        2.04512248       4.82606306       0.00541217
H        2.24264350       5.40655929      -0.74946969
H        2.90507424       4.73256249       0.50532732
O       13.60576923       5.59375456      14.87815016
H       12.80718131       5.34511038      15.40622071
H       14.27149009       5.61433494      15.63150153
O       10.65535235       2.69418271       3.99444075
H       11.33369381       2.31854036       3.39751566
H       11.11906213       3.03944740       4.78020460
O        9.28732579       4.86994368       6.58947354
H        9.78315254       5.15555711       5.78329097
H        9.56251879       3.98266660       6.88690485
O        5.25347925       7.60108045       9.76738122
H        5.01157299       7.51512543      10.71135141
H        6.16984534       7.30769541       9.59920827
