342
Lattice="15.07779 0.0 0.0 0.0 15.07779 0.0 0.0 0.0 15.07779" Properties=species:S:1:pos:R:3:forces:R:3 energy=-59739.71230111062 stress="2916.116124345005 0.0005045069517661856 -0.00027703242718537006 0.0005045069517661856 2916.1090123631034 0.0029828415561095833 -0.00027703242718537006 0.0029828415561095833 2916.112244227258" pbc="T T T"
Cu       6.98570799       8.20223295       7.47432404       0.03488508       0.17918234      -0.33058859
O        5.94753423       6.74620919       5.63307747       0.05604402       0.28586201      -0.03205758
H        5.95274650       7.02739747       4.68532034       0.02712329      -0.00566140       0.04654769
O        7.92545973       9.05098824      10.17037189       0.11087897      -0.00467123       0.01388225
H        7.81209778       8.83178016      11.12953267       0.08303754       0.08710395      -0.06062198
O        8.81876058       7.53661317       6.38412288      -0.11905651      -0.04189092       0.11462309
H        9.64758399       8.07171459       6.28128174      -0.07423616       0.06690846      -0.05176465
O        6.86352675       6.52908548       8.39159703      -0.06206149       0.11989373      -0.06433472
H        7.43448642       6.58185496       9.21630202      -0.03436990       0.08352250      -0.05484557
O        6.97230479       9.63979157       6.24673641       0.07700456       0.01437839       0.47404661
H        7.85624986      10.10581759       6.19061967      -0.08994043      -0.27938547      -0.22059955
O        5.39005417       9.01458245       8.53908727       0.03625326       0.14097867       0.13922248
H        5.64257976       9.88279454       8.94241071       0.03530246       0.03268792      -0.09466089
H        7.85031339      10.03060392      10.11275048       0.03499310       0.04309282       0.03959982
H        6.35354461      10.39329932       6.45796229      -0.20016048      -0.11152083      -0.14715391
H        5.32460686       8.43110439       9.34125724      -0.02053916      -0.06185069       0.11071424
H        5.60358023       5.82772178       5.65428240       0.00923362      -0.22361783       0.06172855
H        7.39762757       5.92355896       7.80336436      -0.11279807       0.07053769       0.02160494
H        8.47158994       7.41053155       5.46181373       0.15041782       0.06917221      -0.02569885
Cl       9.64554787       0.93820351       0.86220535      -0.10438065      -0.39170793      -0.11354957
Cl       1.89402825      -0.93104845       1.72961550      -0.36385139      -0.30114705       0.04053118
O       13.43647371      -1.14394867      12.86366967      -0.04911855       0.05158667      -0.01374331
H       13.71644148      -1.85074296      12.23304064       0.02432046       0.04524260       0.02709888
H       14.27399168      -0.77686115      13.22378348       0.05973343      -0.06388653       0.05714565
O        7.04645820      13.88629409       8.90538964       0.02305777      -0.02679275       0.02607122
H        7.39770533      14.79785303       8.77205162      -0.00878446       0.00058581       0.07952791
H        6.18263506      14.06668819       9.34902147       0.00897132       0.03280239       0.01512966
O        6.70993763       3.83032750       8.67190549      -0.12498568      -0.12536604       0.01332432
H        6.55857562       4.15893350       7.75748403      -0.05665154       0.05474908      -0.17181317
H        6.03757034       4.24894618       9.26621827       0.05091844       0.02358463      -0.02114716
O        3.81085118       5.24661116       3.03977835       0.05265013       0.09767258      -0.00128201
H        3.61903025       4.98625081       2.10899410      -0.09855554       0.01644177       0.03991445
H        2.93278449       5.24788381       3.48671241      -0.00565256      -0.03667530      -0.00687215
O       13.50129248       3.19208839      13.41047580      -0.18171844      -0.17576203       0.02613480
H       12.63522116       3.52463512      13.07492379       0.00369135      -0.04796063      -0.07803411
H       14.10670036       3.95480933      13.30609592       0.12907544      -0.03992774       0.01913310
O       11.01187527       3.52337994      12.03059036       0.04467308       0.09442760      -0.09311814
H       10.30056682       3.50029000      12.70847535      -0.06160802       0.02180816       0.00590526
H       11.16892088       2.56616900      11.88991305       0.15564295      -0.08193335      -0.06296289
O       13.82764909       7.01581560       0.37127947      -0.01496475      -0.00773380      -0.03659740
H       13.24379453       7.61218849       0.88547387       0.00651155       0.00887020       0.06726131
H       13.72324361       7.33085873      -0.55593171      -0.03998186      -0.02213401      -0.03797309
O        9.64227935      14.76209124       4.34777576      -0.00718968      -0.05644709      -0.07145392
H       10.02177125      14.28017420       5.12612017       0.02047972       0.15226415      -0.03503137
H        9.82471347      15.70380935       4.57059748       0.08898102      -0.03247211       0.12858704
O       12.74004800       7.75359156       7.85266436      -0.00058685       0.00943104      -0.03651918
H       13.57833790       8.20405774       8.12893107       0.03620273       0.00364667       0.05533995
H       12.99580342       6.80164747       7.88971339      -0.01366804      -0.00558556       0.04109416
O        6.56356293       0.92868380      13.72913138       0.13668597       0.09761100       0.20475672
H        7.11576367       0.38201720      13.13163106       0.08470437      -0.07593242      -0.20092159
H        6.51934245       0.36303563      14.53853683      -0.09351784       0.08593078       0.04975060
O        6.23306344       4.59225861       3.38055258      -0.02223414       0.07908966      -0.14168548
H        5.38319940       5.09950760       3.37450448       0.07305443      -0.13609040       0.10151477
H        6.99395824       5.22276933       3.43036272       0.10333227       0.00707302      -0.06047782
O        5.35231893      11.42548194      11.39836843      -0.02403229       0.07799248       0.01037451
H        4.52235914      10.95585860      11.64290271       0.04357340       0.02580371       0.03550691
H        5.04591381      12.35590220      11.27691431      -0.02245176      -0.01411156      -0.01440561
O        2.53093282       0.48743718       9.01537519      -0.01160976      -0.03174649       0.19265050
H        3.15742159       0.39480643       8.26436441      -0.12671899       0.12417056       0.09536067
H        2.28946195       1.44740498       9.03168311       0.12712278      -0.24577057      -0.05616711
O        1.93363794      13.81989196       4.68279640       0.02314147      -0.20035730       0.11629119
H        2.33294592      13.60907691       3.81034929      -0.06860811       0.15577231       0.01966137
H        1.82714928      14.80016993       4.72484851       0.09302753      -0.06367697      -0.04033459
O        2.95941507       2.99434956      12.16236365       0.06679670       0.17808360       0.03141613
H        2.82432738       3.93836378      11.94358928      -0.06413851      -0.02008119       0.12820988
H        3.28149841       2.95110992      13.09459671      -0.07948164       0.03190033       0.04021696
O       12.53704021      11.15481248       5.63821945      -0.05650755      -0.01513107      -0.03543786
H       13.51066423      11.10921597       5.80643963      -0.10736537      -0.03609072      -0.01670776
H       12.44108779      11.72660657       4.84215365      -0.06407487       0.02633602      -0.12024107
O        2.99540679       9.75596966      12.55380189       0.20491201       0.02273393       0.22331304
H        3.26379972       9.32434951      13.39372287       0.04918027       0.03884077      -0.07403463
H        2.11417425       9.40687784      12.32567065      -0.22342759      -0.21128792      -0.03816332
O       11.06952485      11.66373395      11.29252760       0.01302753       0.06400271      -0.06134722
H       10.21267126      11.65772224      10.80020253       0.04123917       0.03242056       0.04702785
H       11.19881594      12.62525186      11.46629265       0.05187781       0.03083635       0.01844572
O       11.20301260       8.84714088      11.55974948      -0.00065633       0.17373386       0.16329845
H       11.26961412       8.54561391      10.63194303       0.06754296      -0.06536963      -0.23116001
H       11.22623955       9.83392033      11.50990890       0.00416475      -0.07124116       0.01203416
O       16.01463307       5.86102424       1.54288105      -0.02025952      -0.03317953      -0.01796573
H       15.12069877       6.27869965       1.49185079       0.05066730       0.04153781      -0.00243758
H       16.09953658       5.41424801       0.66769662      -0.01732894       0.01747642       0.07990868
O       11.44776526       6.19359485       2.61569819       0.09537372       0.00008431      -0.04111921
H       11.34544853       7.17678430       2.53697995       0.00147880      -0.02076591      -0.00972142
H       11.35041749       5.89525996       1.68071868      -0.00472970       0.04044112       0.07953433
O        1.21031859       5.53471644       4.48521432       0.02241503       0.10756519       0.01542934
H        0.45245340       5.90848355       3.97433020      -0.09577500      -0.07297785       0.01335248
H        1.61499624       6.32944150       4.90460017       0.10070548       0.03616422       0.10184645
O       10.95420739      14.52146151      11.28258221      -0.00985303       0.00792463      -0.12044240
H       11.81997138      14.88517611      10.95666068      -0.09372158      -0.05795939       0.07752800
H       10.93554443      14.79343987      12.23051069       0.05918385       0.10224493       0.09890479
O       16.40391038       0.88879276       6.54625204       0.10955588       0.02164022      -0.12199205
H       16.43651775       0.16646304       7.21444614      -0.01867447       0.03004952      -0.11063492
H       15.45647742       0.97104559       6.29729711      -0.11564539      -0.00405566       0.05102061
O        5.53355249       4.45752095      13.67008240       0.06112296       0.02401555       0.02412855
H        5.08492572       3.63983831      14.00773495       0.02244274      -0.00372960      -0.07044282
H        6.49295060       4.24488679      13.75593813      -0.08362573       0.09264209      -0.00302790
O        5.68716965       7.39224239       2.92692462       0.12747503       0.03511576       0.18624291
H        6.10865837       6.78281326       2.26805581      -0.11899346       0.02189491      -0.05343149
H        4.71092511       7.21003219       2.86805033       0.09332383      -0.06306805      -0.02459327
O        6.38370572       1.96829146       3.56673232       0.14875055      -0.13507301      -0.08816728
H        6.48352687       1.78065080       4.53112741      -0.05679179       0.06698076      -0.08936972
H        5.96396582       2.85338199       3.52636404      -0.02705685       0.08271530       0.09126474
O       11.69756187       5.69741759       5.82255808      -0.01554672      -0.10956674       0.02718769
H       11.77874622       5.20222339       4.97979347      -0.01742513       0.10310017      -0.03143566
H       11.84365830       6.64256378       5.57836253      -0.02278031      -0.08429427      -0.07958341
O        6.89085431       3.64654991       0.92500478      -0.06811893       0.00364379      -0.00502476
H        6.28612699       2.91759385       0.66449688       0.03337437      -0.07989025       0.06850006
H        6.64117097       3.86629108       1.85538949      -0.05811222      -0.02474102       0.02932725
O       13.40423583       0.79767136      10.68577737       0.11090131      -0.07479979       0.01876697
H       13.92150366       0.42197494       9.93290796       0.09569728      -0.09898815       0.07251878
H       13.94142499       0.60506055      11.48620612      -0.02733417      -0.11673537      -0.08332386
O        8.92443548       5.02710816       7.10500500       0.07050075      -0.07979545       0.00093173
H        9.36136539       5.45322762       7.88087425       0.04222128      -0.02385678      -0.04282372
H        9.39633720       5.42008981       6.33451193       0.00625753       0.02671948      -0.02691426
O        6.15938396       9.07163586       1.05863083       0.00936025      -0.03224555      -0.17921464
H        6.35839232       8.19261922       0.65535701       0.06644412       0.03924847      -0.02173198
H        5.75877890       8.83198714       1.92397458      -0.08073554      -0.04259926       0.10367575
O       14.08346782       6.72123674       3.32089991       0.09907868      -0.17866779      -0.04259127
H       13.86514413       7.61767216       3.64943812      -0.04908521       0.01224284       0.11291840
H       13.20510657       6.30446251       3.15116950       0.00697335       0.02203794      -0.05087347
O        0.22601559       8.64036555       8.46253730       0.02419743      -0.06126275       0.04673398
H        0.59801849       9.13855325       7.70169798       0.06942448       0.03019369       0.02094421
H        0.50048334       7.69852584       8.42392197       0.01901175       0.02727048      -0.02997663
O        2.57134937       5.75790866       7.82774508      -0.13884695      -0.02325482      -0.10940694
H        3.21440008       5.75692895       8.56800970      -0.05535726      -0.12548470      -0.04499789
H        2.44194008       4.80612441       7.59624175       0.06076433       0.00433138       0.06219533
O        0.02757552       5.98678172       9.16613483       0.04850160      -0.03311675      -0.00787979
H       -0.59640715       5.25763556       9.39271369      -0.11334818       0.01612520       0.00705935
H        0.77530822       5.51645088       8.73830327       0.04577268       0.02357530       0.01305459
O       10.40626654      11.00163948      15.24400660      -0.03983182       0.01790296      -0.05011279
H        9.85976097      10.85307665      14.43425096       0.10179647       0.08117966      -0.00382445
H       10.66003201      11.95022958      15.17292011      -0.03109820      -0.09200423      -0.04829228
O       14.59202344      11.82174730      10.36433105      -0.10161018      -0.06489401      -0.05021860
H       15.03662737      12.51788842       9.82553796      -0.03242766       0.03477218      -0.02723217
H       14.79836415      10.99113257       9.88760973       0.03032626      -0.11176125      -0.00876993
O        5.33327786       5.12815546      10.97212814       0.01551601      -0.12089289      -0.01794909
H        5.40539251       4.59305598      11.79820860       0.00749404       0.04167962       0.00584033
H        5.89452156       5.92032162      11.13244711      -0.01444484      -0.06446142       0.05599783
O        3.84474457       5.78062435      15.39589413      -0.01924676       0.01331030      -0.05022906
H        3.82445230       6.70627205      15.71995280      -0.04142668       0.00461115      -0.01902354
H        4.63076823       5.68507006      14.80543338      -0.03445170       0.06354764       0.01190371
O        6.05586539       4.19085870       6.00181015       0.16912020       0.05842626       0.41679696
H        5.66616642       3.28926675       6.02539241      -0.01998603      -0.11280327      -0.15897489
H        6.68493079       4.18417171       5.24310159      -0.15029495      -0.09764499       0.06426894
O        8.80003366       5.44052544       3.60205983      -0.02774986      -0.18750576       0.04578440
H        9.46232917       6.01104848       3.16010963       0.04432814       0.11111438      -0.03216105
H        9.16432378       4.52577919       3.54545322       0.07891881      -0.00608246      -0.03242160
O       13.27135929       0.76794551       5.23736306       0.08681150      -0.04623401      -0.05368868
H       13.61015098       0.66483636       4.31746294      -0.06472007      -0.07308375      -0.01140716
H       12.53067222       1.40964962       5.16010487      -0.09599114       0.12870842       0.05602598
O        9.05557049       4.21090848      10.20955159      -0.00985715       0.11993839      -0.05210144
H        9.52767874       3.43495883      10.57674075      -0.02106012      -0.08508147       0.01924672
H        8.21209551       3.90347666       9.80482366       0.04958771      -0.02845535       0.06484465
O        6.98698086      14.07190212       3.61529919      -0.09565903       0.06256554      -0.01038857
H        6.57172138      14.40007280       2.78387898      -0.00166431       0.01950405      -0.00885349
H        7.89917060      14.45451886       3.62702539       0.07626683       0.01368712       0.06478904
O        8.97410880       2.41086651       7.65643086       0.12871011       0.05187563      -0.04578874
H        9.01690731       2.40811562       8.63710776      -0.00435325      -0.12874223      -0.06375645
H        8.99959652       3.36900167       7.41986878       0.00154205      -0.00275790       0.01967853
O        9.16680894      10.99755896       5.71713395      -0.05962651       0.00427225       0.09078070
H        8.90460307      11.42416596       4.87436589      -0.11482021       0.09130173      -0.04594474
H       10.02504691      11.38909830       5.99392071      -0.10463273      -0.02759846      -0.07855191
O        8.14087477       8.51283798      12.82998726      -0.11055314      -0.06489945      -0.02672337
H        7.98415997       7.53827479      12.86268656       0.09975636       0.01998183       0.05629433
H        7.35612340       8.90267928      13.28575471       0.02754414       0.08749221       0.00357172
O        7.09731785      11.39710189       3.95039522       0.00071015       0.00150384       0.00796324
H        7.24899519      12.22906564       3.43920750       0.03520462       0.06908583      -0.04203589
H        7.39580046      10.66286619       3.37145729       0.02184847      -0.03903698      -0.10531586
O        2.42949085       2.99290186       8.23938637       0.00801572       0.30966483      -0.02937815
H        1.79191944       2.81498746       7.48901747       0.21927170      -0.07469288      -0.02675738
H        3.31134646       2.88625320       7.81794628      -0.15475384      -0.11321802      -0.04175439
O        4.51472598      14.74768465       3.32524503      -0.03765218       0.02884289      -0.02611222
H        4.59502844      13.91996158       3.85364951      -0.09970607      -0.05691073      -0.08860307
H        5.14525331      15.39006930       3.72353908       0.00460367      -0.00044089      -0.00919118
O        6.12772591      14.08169360       6.27672237       0.06988139       0.13864338      -0.02546523
H        6.53199826      13.93617606       5.38798529       0.12331944       0.00360681      -0.12801175
H        6.81240217      13.87689546       6.95678840      -0.07440036      -0.03735446       0.03006664
O        4.52996606      11.99592735       3.69317483      -0.02996460       0.03122786       0.18149979
H        4.74194374      11.49677888       4.51566718      -0.12934669      -0.02260387      -0.07720292
H        5.35336931      11.85944447       3.18040431       0.13685283       0.03365081      -0.07946446
O        2.61716398       8.06255505       2.53953449       0.05039017      -0.11180151       0.05682431
H        2.40647148       8.95383792       2.17892389      -0.04966537       0.03047535       0.01574483
H        1.94166358       7.43143587       2.19336814       0.01526027       0.02641728      -0.05344063
O       13.37634622       7.87561533      12.87352263      -0.08474342      -0.04931999       0.13051583
H       12.69030816       8.46910776      12.47724270      -0.01432464      -0.05740937       0.00444613
H       14.03968563       7.75259078      12.16500170      -0.01950760      -0.02043810      -0.12503479
O        6.79895080      14.46169892       0.72837156       0.12551875       0.02976779      -0.02045187
H        6.67746543      13.49243348       0.58517857       0.03713241      -0.00453467       0.01825825
H        7.76608287      14.62082836       0.83424814       0.07164889      -0.00921353       0.05192507
O       10.83609969       1.77946254       5.72427591      -0.00902924      -0.05325707      -0.30105768
H       10.33160913       1.74482051       6.56366301      -0.09689150       0.08263791       0.34938941
H       10.33174508       2.42443940       5.17738183       0.00557978       0.07288005      -0.01178133
O        1.67819333       3.44540991       2.33600010      -0.04312288       0.02005832      -0.03098511
H        1.21258874       4.27535555       2.59048370       0.05556475      -0.04474224       0.07756872
H        1.79949227       2.86269959       3.11681997       0.00338894      -0.00516952      -0.02442115
O        5.41642053      14.24259042      11.18515966       0.05129623      -0.13543078      -0.05696131
H        4.76906649      14.76431250      11.70799513       0.03478249       0.07682053      -0.00036321
H        6.17621337      14.11510373      11.79481603      -0.00706859       0.08094704       0.04794053
O       11.67309023       1.74459844       2.51220187      -0.06902684      -0.07905906       0.00977834
H       12.47154791       2.09654297       2.05605828      -0.07162636      -0.10110958      -0.01407924
H       11.40629359       0.97093029       1.96015074       0.14129687       0.06620691       0.06543252
O       11.27384364       9.00924431       2.20208805       0.06003713      -0.06767349      -0.02486653
H       11.50261247       9.76865200       2.79163367      -0.04175372       0.01548863      -0.10600706
H       11.08698312       9.47128703       1.34787966      -0.08380605       0.05513279       0.04627371
O       11.05705610       6.09039498      11.59206502      -0.01886801       0.14914172       0.04116924
H       11.43717070       5.18087877      11.58429061       0.05308507       0.00507661      -0.03173705
H       11.68999471       6.65737979      12.09164529      -0.10351696      -0.15811196      -0.08760451
O        1.63766624       3.97844349      14.78809149      -0.07703039      -0.00926834       0.13036670
H        1.71163487       3.48298664      15.64074616       0.02808928      -0.00228139       0.02126272
H        2.45765452       4.52786978      14.79368669       0.01321983      -0.03546222       0.00768781
O        2.40236943      10.78924538       2.26307581      -0.09707279      -0.08960580      -0.03388652
H        1.70006629      11.33398139       1.84966515      -0.04989883       0.10367688       0.03267535
H        3.14234370      11.39383469       2.50827451      -0.11990672       0.05308609      -0.00099905
O        2.33529004      10.01677219       4.91869680      -0.02917965       0.03881105       0.03600543
H        2.41457430       9.03494255       4.99885338      -0.11669102       0.28472796      -0.34361975
H        2.16364831      10.26731538       3.97541433       0.10601389      -0.40094049       0.24416421
O        6.86198333       6.35438386       0.70850824      -0.01631781       0.00908258       0.02379031
H        7.84279670       6.31294751       0.54821488       0.01180908      -0.00958588       0.04320969
H        6.57666575       5.43043434       0.50890068       0.00631474       0.05556079       0.00966040
O        2.56088699      12.99714701       9.54175073      -0.05808144      -0.16080380       0.09224589
H        2.62054664      12.50696273      10.39078916       0.04100218       0.00073157       0.00822309
H        2.45725538      13.94413903       9.78385226      -0.00815754       0.09436944       0.00694020
O        4.26562070       2.13947403      14.22283231       0.10541219       0.04388816       0.21856137
H        4.02813779       1.59545582      15.01166896      -0.04117841       0.03753065       0.07152760
H        4.85801485       1.51508039      13.73495646       0.01988524       0.10397829      -0.12902012
O       10.77016437      13.87238890      14.18866214      -0.07523559       0.09787559       0.19131492
H       10.69746840      14.36404675      15.04949874       0.19964780      -0.12480802      -0.18622148
H       11.72453481      13.69209364      14.00589696      -0.10117602       0.12940465       0.14974711
O        1.99479441       1.20503870       3.63052369      -0.04058446       0.02078573       0.00561889
H        1.43028690       0.79474814       2.93523305      -0.10307279       0.02609637      -0.01229215
H        2.87780785       0.84347255       3.36412516       0.05387340      -0.02918058       0.12335172
O       11.54876024      14.10482192       2.49669658      -0.12166839      -0.00058017      -0.00871396
H       10.97402966      14.51596538       3.18711365      -0.15123612      -0.07965749      -0.03296691
H       12.46680161      14.38183263       2.72647255       0.10050830      -0.01236811       0.01568229
O        9.36364989       2.76107923       3.67170347       0.05143053       0.07365909      -0.02053637
H        9.97638146       2.37636260       2.99190448       0.08769615       0.02441664       0.07709551
H        8.47251373       2.39652870       3.45348152      -0.05597581      -0.06581790      -0.01418178
O       12.52067626       4.79809801       8.25216414       0.01416666       0.05626707      -0.02931512
H       12.20093892       4.91627573       7.32538401      -0.02514277      -0.03957433       0.01719913
H       11.79306312       5.12841105       8.82177648      -0.03363432      -0.04642272       0.00294279
O       14.70603876      13.86372981       8.69962109      -0.07014605       0.04255429       0.12324921
H       15.40972814      13.73853401       8.01581929      -0.03256980       0.00881837       0.05805631
H       13.87891144      13.54296373       8.27607012       0.08816135      -0.01260623       0.00028820
O        8.62468931       8.12772427       3.24722441      -0.06072634       0.06995671       0.21962994
H        8.02187625       7.97104315       2.49169916       0.05564051       0.04040839      -0.09118073
H        9.46274762       8.46720376       2.85904835       0.04651759       0.09772818      -0.16969682
O        6.22248238       1.60958678       6.16297120       0.00445142      -0.02667095       0.12501863
H        5.91655816       0.67971680       6.30562165       0.00560197       0.06409738       0.04125660
H        7.08454863       1.65679028       6.64756118      -0.05613672       0.02579411       0.02210498
O        0.57979110      10.69715718       6.85946295      -0.11480449      -0.00337841      -0.10716660
H        1.18096994      10.51234397       6.09282258      -0.01384162      -0.00660986      -0.10518132
H        0.85195011      11.59979131       7.13103484       0.07351325       0.14782075       0.13635575
O        8.53885724       5.93114564      12.77068941      -0.10152203       0.25011201      -0.16407759
H        8.18987657       5.06345546      12.47158677      -0.06498363      -0.19877009       0.02325393
H        9.37176371       6.02280377      12.24108523       0.06205549       0.04922700       0.06141333
O        8.30285093      11.30040060      12.93813377      -0.10061581       0.06928784      -0.01695264
H        8.28449827      12.15975946      12.46383804      -0.03411531       0.04605839       0.00312992
H        8.62849210      10.63837604      12.29535023       0.02792799      -0.14135903      -0.07313477
O       11.35935594      13.91732589       6.11419757      -0.06106114      -0.00887246      -0.01137946
H       11.41228691      13.81496689       7.08854333       0.00820799       0.00472055      -0.02754536
H       12.03236085      14.58969816       5.84737866       0.11620101       0.02006410       0.06263965
O        8.22933709       3.29828924      13.17585157       0.09536932       0.06189952       0.03780240
H        8.64181620       3.36260029      14.07619894       0.02287902       0.03127493      -0.03088083
H        7.57936400       2.55891845      13.28885860      -0.04341987      -0.03969397      -0.02474862
O        8.87360291       6.68164981       9.83793012      -0.00232205      -0.20867711      -0.09061214
H        9.28486340       5.92376656      10.30995243       0.04676340      -0.11767111      -0.07253239
H        9.12455807       7.49585833      10.30880829       0.07721873       0.38833684       0.06308319
O        4.32470731       0.10866196      15.56878400      -0.04060225       0.07010946      -0.15949828
H        4.97080524       0.03498778      16.30432703      -0.07550321      -0.05893957       0.06665468
H        3.54194165      -0.38266267      15.90647870       0.04041963       0.00947693      -0.00944764
O        9.15482185      16.70097156      10.76298400      -0.05607905       0.05530603      -0.03968337
H        9.84609531      16.00095863      10.77701685       0.09805541      -0.15619056      -0.06377699
H        8.95603795      16.83752285      11.71519162      -0.03069545       0.12309356       0.06979819
O        9.56529877       3.55217879       0.51420201      -0.01100761      -0.02977934      -0.04714006
H       10.26440194       2.90615382       0.74855346       0.12911625      -0.10647858      -0.00327967
H        8.77655075       3.25149268       1.02422651      -0.11325357       0.01662148      -0.03879832
O       -0.93247232      -0.17836793       2.62217568       0.04520721       0.00556018       0.11248263
H       -0.88122152       0.28485991       1.75885986       0.05179779       0.00139525      -0.17785638
H       -0.11043219      -0.71465229       2.69041507       0.07466501      -0.06714196      -0.11010380
O        8.13179897      11.57544706       9.50073650       0.02532143       0.04801299       0.05699522
H        8.46678180      11.56453095       8.57700430       0.08617850       0.06433998       0.12117962
H        7.64277656      12.43117003       9.54801773      -0.00757108       0.00613005      -0.05806705
O        5.24304147      11.57501146       6.67546615      -0.00977061      -0.05602216      -0.06720419
H        5.25229225      12.55140297       6.53190143       0.07955385       0.01227403       0.01677780
H        4.30197838      11.29408289       6.68557445      -0.00703295       0.03820680       0.04691638
O       11.45965801      12.31331793       8.15193709       0.07490525       0.05247613      -0.03152668
H       11.94439058      11.78107219       7.47655129       0.00001618      -0.01245722      -0.01517264
H       11.68287686      11.92305437       9.02480421       0.11284176      -0.00661213       0.03468651
O       -0.00828413      11.37122170       1.06448405       0.08092567      -0.03921588       0.17312054
H        0.19075530      12.30723508       0.83005907       0.01775812       0.03578970      -0.08952738
H       -0.03023336      10.87469266       0.22235151      -0.02984610       0.07348456      -0.11571722
O        5.32807701       7.77441270      10.93727681      -0.02533250       0.04143554      -0.01217041
H        5.51813657       8.47782374      11.60514358      -0.04357406      -0.03770464      -0.04766211
H        4.47899546       7.38108610      11.23329638      -0.03164077      -0.02305643       0.01005362
O       13.80943085       1.85345428       0.84045432      -0.00513004       0.04198187       0.10161643
H       13.68732425       2.31141774      -0.02303218      -0.03200280       0.05927228      -0.32340445
H       14.61204741       2.28469089       1.20946212       0.08858655       0.08798012       0.00838811
O        2.76587508      12.39791071      12.18432784       0.06723506      -0.27184052       0.06181514
H        2.12978571      13.07466622      12.49379464       0.03757341       0.07877648       0.13959478
H        2.59771726      11.58985681      12.71712227       0.03345142       0.00897146      -0.04067018
O        6.97441190      11.73933905       0.87830337       0.03534758       0.09203312       0.00612408
H        6.62180251      10.82002780       0.88169812      -0.01006140      -0.03995026       0.03062951
H        7.91501911      11.60242447       0.60958878      -0.15021078       0.00936219      -0.01606350
O        1.61133980      15.88920115      13.15161730       0.00776013       0.03626262      -0.09417162
H        1.93512521      16.03367018      14.06234460       0.04290630       0.00968689       0.12703833
H        1.72639600      16.76548608      12.71645192       0.06782172      -0.04201353      -0.01430756
O       11.86074882       8.52396705       5.55835236       0.08868178       0.08236017      -0.05090421
H       12.33209889       8.39831420       6.41685013      -0.01036936      -0.00049328       0.11300105
H       11.96047997       9.48460285       5.36493292       0.02982067      -0.06023543       0.01137506
O        2.62435276       7.43482527       5.82255002      -0.11905212      -0.06407362      -0.03864732
H        2.51766078       6.98734539       6.69477904      -0.00799681       0.05399108       0.04677897
H        3.56239838       7.24021251       5.59732570       0.00904507       0.05581904       0.00625548
O        6.69206627       1.28003281       8.98980450      -0.14689113       0.05015407       0.10285116
H        7.14061976       1.51854220       9.83420286       0.08348111       0.01592108      -0.02106298
H        6.49987058       2.16429906       8.60539795       0.05924246       0.09232929      -0.05091854
O        8.38457533      14.05812022      12.50636705       0.02916583      -0.01960690      -0.00192420
H        8.90528111      14.21459845      11.68741366      -0.04883177       0.06823438      -0.13651562
H        9.08528848      14.06563849      13.20439331       0.00535205      -0.08118846       0.10914382
O        5.36160829       1.98917658      11.14563266       0.03463040       0.19516895       0.24875868
H        4.44583308       2.34377464      11.24760330       0.00606998      -0.04442821       0.04328687
H        5.30801037       1.35329827      10.40424835      -0.10012125      -0.13551210      -0.22785957
O       10.63146840       1.39448869      13.26294289       0.09132675       0.07006386      -0.04429967
H        9.89810507       1.39713531      13.92412488      -0.05668387      -0.01805106       0.02744705
H       11.36422145       1.03507791      13.80658819       0.07743638       0.04271138       0.05294854
O        5.68085260       9.85503594      13.56706434       0.03622866       0.12887796      -0.05574170
H        6.01404116      10.73984607      13.27978272      -0.02566497      -0.03584813      -0.07830273
H        5.58303863       9.88980042      14.53958104       0.02135539       0.00841997       0.20130544
O        1.75262199      13.33567440       7.16108155      -0.04437970      -0.10151056       0.05053408
H        2.45070019      13.04893355       7.78767995       0.07443911      -0.07574014       0.08175648
H        2.05089545      13.31725355       6.22075144       0.12282389       0.03974175      -0.13766434
O       11.93731153      11.59766168       2.86934091       0.00228183      -0.33299311       0.06408747
H       11.53769065      12.49006092       2.72765338       0.09715277       0.08109251      -0.17205406
H       12.80524653      11.62158689       2.40596867      -0.12999316       0.12347983      -0.02414767
O        1.33738758       3.33303615       5.81094903       0.00514563       0.03547528       0.21256537
H        1.53902788       2.58040770       5.21644874       0.01120545       0.00088522      -0.08996402
H        1.14615410       4.13993813       5.28388868       0.01378007      -0.13483808      -0.12688390
O       13.50212310       3.61135453      10.25315412      -0.00195885      -0.02249701      -0.10265104
H       13.10577945       3.36650714       9.38967861      -0.02978160       0.04604760      -0.10909218
H       13.68731750       2.76006471      10.70293542      -0.04774710      -0.09382342      -0.08524347
O        9.52248735       6.04819565       0.16759256       0.03074689       0.05931269       0.12594094
H        9.47351586       6.09983782      -0.81171433      -0.08815664       0.00033302      -0.00386122
H        9.71021439       5.09921570       0.35010576      -0.11572539       0.05700403       0.00090374
