27
Lattice="6.2099 0.0 0.0 0.0 6.2099 0.0 0.0 0.0 6.2099" Properties=species:S:1:pos:R:3:forces:R:3 energy=-4201.153461320713 stress="134.0827248670898 -1.5131325703737028e-05 -0.0011186887721882828 -1.5131325703737028e-05 134.0821247894935 -0.005069678165703427 -0.0011186887721882828 -0.005069678165703427 134.08094439839442" pbc="T T T"
O        2.80111724       0.89398566       0.76990947      -0.00750165      -0.01031416       0.00229543
H        3.52426533       1.56128557       0.70999339      -0.00205779       0.00695549       0.00718999
H        2.76910282       0.56901853       1.69727970       0.00079283      -0.00119132       0.00597617
O        4.89659303       1.11696170       4.46696756       0.00958866       0.00082929       0.00567926
H        4.04467425       0.80404262       4.82279966       0.00534168      -0.00202147      -0.00174404
H        5.18396209       0.43081704       3.82424606      -0.00179741       0.00109821       0.01051313
O        2.12303805       5.97569014       3.18799942       0.00699618       0.00581495       0.00343506
H        1.97029757       0.66793801       3.56819693      -0.01147384      -0.01273667      -0.00187070
H        2.49145508       5.41410372       3.90625097      -0.00560163       0.00045525      -0.00942230
O        1.74289822       2.26750139       3.69030784       0.00759985       0.00252572      -0.00411727
H        1.29897681       2.51003759       4.53160819      -0.00389699      -0.01024581      -0.01214532
H        2.52414113       2.85311134       3.59901250       0.00245386       0.00651458      -0.00483890
O        4.24861993       3.32109157       3.19016000       0.00528238      -0.00558046      -0.01437073
H        4.82905231       4.10264215       3.30903553       0.01133340       0.00655949       0.00801877
H        4.67136701       2.57184002       3.67264098      -0.00647152       0.00343358       0.01689148
O        5.79669872      -0.75097251       2.72892548      -0.00259214      -0.00012227       0.00296551
H        0.56804799      -0.72715071       2.84787033       0.00801251       0.00301794       0.00248901
H        5.64179576      -0.61999061       1.77713612      -0.01481793       0.00844575      -0.00107438
O        4.45576625       3.01406033       0.54869114       0.00030989      -0.00847048       0.00785263
H        5.39614956       2.87694311       0.28787049      -0.00479935       0.00505110      -0.00877230
H        4.45995081       3.18791920       1.52002982       0.00687958      -0.00752830      -0.01014071
O        0.92538588       2.85970423      -0.00411671      -0.00219963       0.01105998      -0.00523443
H        1.48134743       3.67034800       0.00078730       0.00447099      -0.00128353       0.00393382
H        1.44955597       2.16741389       6.66577472      -0.00903382       0.00227016      -0.00579535
O        2.75864856       4.79899250      -0.61925334       0.01173241      -0.00254140      -0.00542293
H        3.51054007       4.22263299       5.86348053      -0.01018422       0.00497006       0.00392013
H        2.80215213       5.60640154       6.15149591       0.00163368      -0.00696570       0.00378898
