192
Lattice="12.4198 0.0 0.0 0.0 12.4198 0.0 0.0 0.0 12.4198" Properties=species:S:1:pos:R:3 pbc="T T T"
O  2.320400  -0.017689  -2.437500
H  3.150200  -0.649110  -2.627400
H  2.580400  0.528480  -1.773700
O  -5.727400  -0.946440  -3.966300
H  -5.236100  -1.231500  -4.777100
H  -5.728400  -1.641600  -3.453100
O  -5.639300  4.102300  -5.338400
H  -4.974700  4.226600  -4.664500
H  -5.625100  3.165800  -5.555900
O  2.730700  -4.250200  4.067200
H  3.027200  -4.149700  3.249900
H  1.788000  -3.748100  4.447600
O  1.290600  -4.437800  -3.194900
H  1.136400  -5.471700  -3.020600
H  0.862400  -4.063500  -2.457000
O  -3.619400  -1.334800  -5.902300
H  -3.237600  -0.758910  -6.639989
H  -2.792000  -1.632900  -5.315300
O  5.673000  -0.604400  -0.853750
H  4.885600  -1.345300  -0.964700
H  5.596200  -0.167130  -1.709900
O  3.071500  0.825920  0.014826
H  2.887900  0.148070  0.586160
H  3.765700  1.357000  0.267290
O  -3.666000  -3.943300  5.468900
H  -3.882100  -3.049100  5.632200
H  -4.484900  -4.435600  5.774600
O  2.684700  -4.771900  -0.061938
H  1.730700  -4.814300  0.188360
H  3.193700  -5.563500  -0.360370
O  5.035600  0.905220  4.600700
H  4.962400  0.602880  3.710000
H  4.536000  0.267860  5.181700
O  1.620500  5.786200  3.229200
H  1.839100  5.020800  3.842000
H  1.990000  6.430289  3.754600
O  -3.097700  -1.519400  1.968800
H  -2.208500  -2.113400  1.841800
H  -2.923900  -0.793100  1.242300
O  0.171220  -5.046600  1.136000
H  0.391970  -5.700900  1.967300
H  -0.556970  -5.373900  0.832400
O  4.805500  5.003600  -3.500600
H  4.215200  4.954500  -4.335500
H  5.560400  4.540800  -3.901100
O  -0.398910  4.311100  -1.667500
H  -0.971250  4.702900  -1.020200
H  0.136630  3.717100  -1.151600
O  -0.336120  -2.516300  1.382500
H  0.024511  -3.347100  1.789100
H  0.385440  -1.855800  1.733700
O  3.569800  5.083400  -0.683430
H  4.108900  4.545200  -0.053343
H  3.887800  4.906100  -1.619300
O  -2.617400  -5.058000  3.013900
H  -2.772300  -4.621700  2.074100
H  -2.963900  -4.472400  3.652400
O  1.836600  1.810400  3.982800
H  2.475600  2.482100  3.928000
H  1.283200  1.759100  4.811800
O  5.680100  -2.180900  4.845300
H  6.039000  -2.359700  3.906800
H  6.401089  -1.502400  5.146600
O  -1.446900  -2.509400  -1.325000
H  -2.085500  -1.979500  -1.281300
H  -1.055100  -2.580500  -0.359890
O  -5.679000  4.836400  3.509400
H  -5.677600  5.402700  4.291800
H  -5.682200  5.610600  2.891900
O  1.617400  5.338100  -3.505200
H  0.982850  4.733700  -2.866800
H  1.154200  5.387400  -4.354500
O  -5.760900  -4.384300  -0.221610
H  -6.266589  -3.767400  0.354700
H  -6.090700  -4.274900  -1.106800
O  4.239100  3.454700  4.134700
H  4.202400  2.453200  4.051200
H  4.923900  4.107800  3.887500
O  -3.825200  -0.867220  -0.999810
H  -4.824800  -1.236800  -0.712410
H  -3.959600  -0.108880  -1.532300
O  -5.205700  3.214900  -1.174400
H  -6.139700  3.638200  -1.186200
H  -4.479000  3.901300  -0.764820
O  5.572600  0.365270  1.919700
H  5.461500  0.307400  0.938140
H  6.374400  0.985960  1.946800
O  0.392710  6.011400  -5.704100
H  0.187620  6.795289  -5.682200
H  -0.063805  5.273800  -6.195300
O  -5.000500  2.538300  1.978300
H  -4.172500  1.931700  1.876600
H  -5.077000  3.060300  2.842800
O  4.691600  -4.313500  6.114600
H  3.986000  -4.643700  5.639800
H  4.882500  -3.451500  5.672000
O  1.200300  2.028500  -5.510000
H  1.517600  2.885600  -5.769400
H  1.917500  1.264800  -5.288700
O  -1.901900  -1.925100  -4.186500
H  -1.857300  -2.531700  -3.368100
H  -1.310400  -1.158300  -4.119000
O  3.646200  -2.565700  -1.666000
H  3.027700  -3.117900  -1.054100
H  4.032400  -3.173500  -2.345000
O  -0.187820  2.259700  2.207300
H  0.160980  2.590500  1.475000
H  0.516320  2.111500  2.764900
O  -5.903300  -2.146400  2.193000
H  -6.157200  -1.142500  2.253600
H  -4.731300  -1.948500  2.162700
O  -2.149800  4.438400  2.462000
H  -1.440900  3.754300  2.661500
H  -1.902600  5.228800  3.021800
O  -2.465100  1.209900  1.352600
H  -1.601400  1.390700  1.729800
H  -2.292900  1.619200  0.359170
O  -5.726300  5.410100  0.960080
H  -4.868800  5.108300  0.793240
H  -5.959300  6.199000  0.212310
O  -2.312300  3.890100  6.124300
H  -1.948100  3.128200  6.307389
H  -3.208200  3.834100  5.897900
O  -0.487220  -0.021661  4.816300
H  0.312660  -0.546740  4.900600
H  -0.575700  0.376670  5.671300
O  -0.443840  0.124220  -3.135700
H  -0.793520  0.637860  -2.256600
H  0.564570  0.202310  -3.062100
O  4.626600  3.256500  0.942540
H  4.126500  3.237900  1.781800
H  5.462500  3.218500  1.230100
O  4.733300  1.945100  -3.214400
H  4.141500  2.717800  -2.819300
H  4.242800  1.382100  -3.636300
O  1.871200  -0.890640  2.257300
H  1.792400  0.023777  2.571200
H  2.412800  -1.512900  2.834600
O  -4.335200  -5.034000  -3.898500
H  -3.921900  -4.471000  -4.522800
H  -3.790800  -5.837900  -3.928900
O  5.551800  -4.331900  -3.098500
H  4.935300  -5.023000  -3.142300
H  6.365289  -4.736500  -3.295800
O  3.967500  -3.090000  1.949600
H  4.723800  -2.700100  1.676800
H  3.642900  -3.324400  1.066500
O  -3.020800  0.221260  4.257700
H  -3.328200  -0.079150  3.341100
H  -2.104900  -0.123260  4.157300
O  -4.203900  1.353900  -2.713100
H  -4.961000  1.596100  -2.046400
H  -4.523600  0.828490  -3.321800
O  1.293600  -2.389800  5.477700
H  0.506650  -2.797800  5.564800
H  1.786000  -2.225500  6.283389
O  -5.647300  -5.937300  5.669700
H  -5.788700  -6.666489  6.366589
H  -6.555289  -5.486100  5.917900
O  1.467900  3.006400  0.113330
H  1.981500  2.221400  -0.169790
H  2.045100  3.797600  0.077882
O  -1.997300  1.660200  -1.257700
H  -1.127600  2.255700  -1.317900
H  -2.824400  1.854000  -1.890400
O  -2.911200  4.890400  -0.179580
H  -2.678100  4.900900  0.774170
H  -3.157500  5.699900  -0.644980
O  2.697100  -2.815400  -4.826800
H  2.412000  -3.486800  -4.194700
H  3.435100  -3.183100  -5.247500
O  -2.888400  -4.638600  -0.022568
H  -3.889000  -4.523100  0.159270
H  -2.737200  -3.981100  -0.708720
O  -1.025700  -4.073600  -5.937600
H  -2.067000  -4.047600  -6.131289
H  -1.055700  -3.303200  -5.473600
O  2.889600  4.335900  -6.158600
H  2.525600  5.164500  -6.229989
H  3.372200  4.267400  -6.918689
O  -3.222100  4.899600  -3.989600
H  -3.105200  4.413600  -3.193800
H  -2.489300  4.647900  -4.694100
O  -1.648800  1.360100  -5.335100
H  -2.408600  1.323100  -4.640500
H  -0.698990  1.501200  -4.845400
O  -4.895700  1.554900  6.021700
H  -5.678400  1.348500  5.605800
H  -4.161500  1.086500  5.614400
O  4.096700  -0.306460  -5.267800
H  5.081300  -0.279780  -5.051500
H  3.474100  -0.942690  -5.098700
