342
Lattice="15.07779 0.0 0.0 0.0 15.07779 0.0 0.0 0.0 15.07779" Properties=species:S:1:pos:R:3 pbc="T T T"
Cu       6.95414923       8.83823276       7.87417554
O        5.78834804       7.81471797       6.24755940
H        6.01849091       7.79181626       5.26632792
O        8.00195873       9.27866024       9.59365931
H        7.57309234       8.89569506      10.38727794
O        8.68870527       8.88530403       6.66198818
H        9.38107056       9.43998343       7.07582986
O        7.61674975       6.90659408       8.61275597
H        8.57385243       7.01202716       8.91715164
O        6.66348134      10.72813929       6.96773354
H        7.35728787      10.96233360       6.27703680
O        5.25030539       8.41863029       9.15234009
H        4.83671730       9.22807439       9.69286616
H        8.15528160      10.23753413       9.76862280
H        5.81673311      11.26394223       6.84988540
H        5.57760674       7.80525056       9.83666100
H        5.53826949       6.86854574       6.49595180
H        7.65624975       6.14191267       7.98973405
H        8.64726796       9.08127341       5.68158589
Cl       8.81748620      -0.22933751      -0.12967314
Cl       0.81937654       0.35311210       0.08280070
O       13.07015459      -1.04086265      13.98330256
H       13.39287024      -1.58735825      13.20525525
H       13.83919818      -0.47528919      14.21634554
O        6.99890950      13.55357828       8.40645564
H        7.20577094      14.43639958       8.75160936
H        6.21041449      13.28634102       8.92947021
O        6.73259608       3.55931082       8.94716060
H        6.74788287       4.11301582       8.10175687
H        6.15607555       4.00127645       9.55879057
O        4.50963635       4.86547646       2.36341059
H        4.21894026       4.94612894       1.43329108
H        3.59900240       4.86067193       2.84693109
O       14.35416298       4.28026698      13.53971710
H       13.90636306       3.80439608      14.32138910
H       15.26564317       3.86393672      13.42739420
O       11.02157589       3.45024656      11.79621502
H       10.41718703       2.91248588      12.33711716
H       11.75493852       2.76123174      11.67922262
O       13.76809115       7.83215689       0.53013812
H       12.96440428       8.24487818       0.91181169
H       13.56568494       7.89473162      -0.43919117
O        9.45590705      14.30659023       4.90612783
H       10.27139649      13.95763417       5.42412178
H        9.69261184      15.24514973       5.17405317
O       12.74427129       9.50793118       7.83809843
H       13.65768994       9.59045319       7.48285223
H       12.69423137       8.75787573       8.48086049
O        6.49181325       0.88256176      13.04680478
H        5.95040241       0.43258652      12.30974049
H        7.07941971       0.27357217      13.56372752
O        6.31727296       4.49471340       4.37147617
H        5.66078470       4.54508542       3.65740914
H        7.21943697       4.81809721       4.22315772
O        4.41827032      10.44833380      10.30195096
H        3.87868056      10.42979097      11.09915869
H        4.82863285      11.33734858      10.25804409
O        2.83920240       0.50323792       8.39291084
H        3.68223703       0.96935840       8.17547503
H        2.40724891       1.19177798       8.91239596
O        2.13333012      12.98566312       3.32654708
H        3.00284330      12.54333153       3.15315370
H        2.41652922      13.74485941       3.96858005
O        2.88180294       2.21147106      11.22198905
H        3.29835015       2.81237112      10.51574553
H        2.90461195       2.64516141      12.14319652
O       12.87279477      10.45025703       4.99823831
H       13.67393544      10.02732894       4.60479786
H       12.59592836      11.20601659       4.44750564
O        2.38953337      10.64001364      12.37413781
H        2.90345375      10.00895143      12.92331046
H        1.65510207      10.09528593      12.02924354
O       11.36406393      11.67199739      10.52651541
H       10.60472167      12.21362981      10.38146707
H       11.89129828      12.26036301      11.07570864
O       10.85399058       8.81041726      11.27560685
H       10.65737473       8.66915000      10.34167069
H       11.48931194       9.57001683      11.11188477
O       15.97431006       6.06796094       0.07703936
H       15.75955108       6.61774208       0.85676533
H       15.09364701       5.92053508      -0.28063929
O       10.85801941       6.68865903       3.19812652
H       10.92070017       7.66363169       3.11647006
H       11.05682953       6.47809093       2.27986176
O        2.22001321       5.99680106       3.63127169
H        1.44296913       6.51601863       3.32526518
H        2.56187630       6.42328355       4.45390139
O       11.06393738      13.92975130      11.71991891
H       11.80357684      14.56180613      11.65163803
H       10.83879256      13.99757803      12.66057242
O       16.60659422      -0.40626158       5.69381638
H       16.95260228       0.41256844       6.05613001
H       15.70375962      -0.19852017       5.40270969
O        5.91956317       5.47050204      14.74301621
H        5.76327901       4.49009128      14.53338303
H        6.53029287       5.70396804      14.04767968
O        6.00082499       7.90438996       3.58285490
H        6.27330877       7.31226658       2.80217469
H        5.08805039       8.15013821       3.38984885
O        6.99925038       1.30900845       3.72943209
H        7.11146185       1.46561070       4.72350406
H        6.78608908       2.21457149       3.38236402
O       10.65654196       6.03625495       6.19164699
H       11.15922865       6.02825642       5.32557603
H       10.13129096       6.87185359       6.18868379
O        6.56319228       3.02717253       1.61006656
H        6.21917345       2.77647708       0.68709410
H        5.80257701       3.53752409       2.03363493
O       13.02015976       0.39811138      10.96135903
H       13.10368092       0.12461008      10.00050012
H       13.84359938       0.83081012      11.15910522
O        8.51527073       4.67617253       6.89365506
H        9.16739026       4.70076981       7.62767753
H        9.14678950       4.87657671       6.12561066
O        5.78042281       8.35902720       0.46999000
H        6.43962977       7.63495927       0.57425819
H        5.01094478       8.17021824       1.03123986
O       14.81634190       6.99265195       3.05085373
H       14.80029790       7.57151097       3.82954489
H       14.16518737       7.34533837       2.41132299
O        0.59964448      10.24525593      10.19744377
H        0.69173083      10.64030707       9.25554973
H        0.61856071       9.25210608      10.11631774
O        2.81780809       6.31797774       8.54665048
H        3.44476898       6.96864647       8.88370837
H        3.28455572       5.45172767       8.90809327
O        1.14996628       7.16626635      10.47156760
H        0.47772096       6.59130525      10.93102036
H        1.38093482       6.57653079       9.71253517
O       10.77155722       9.98801156      14.48754731
H        9.86362253      10.06335157      14.16495890
H       10.97779293      10.87384832      14.75335677
O       13.95034400      12.63324232      11.66665230
H       14.26252919      13.25426076      10.96835453
H       14.51544058      11.77339450      11.44412313
O        4.91579539       4.08548337      11.04653310
H        5.12287182       3.64670803      11.96415078
H        4.72829254       5.07286774      11.30486323
O        3.50819471       5.50301994      15.01279058
H        2.62785649       5.98449603      15.06736087
H        4.22805815       6.11859849      14.81925940
O        5.59086943       5.39293419       6.70787885
H        4.80974010       4.85902417       6.99160128
H        5.72546972       5.02858303       5.74052077
O        9.17824192       4.66680698       4.16353625
H        9.92396377       5.25694540       3.85683691
H        9.44132736       3.79151617       3.81298336
O       13.66631430       0.32626212       5.10873861
H       14.06434713       0.23407381       4.23311869
H       13.07268077       1.09164332       4.96711490
O        9.61147025       3.47284498       9.14684632
H       10.10285714       3.01676690       9.80309429
H        8.64108262       3.33902733       9.31491240
O        7.08092514      13.47100423       4.05061953
H        6.89314618      13.31223459       3.07696305
H        7.88996142      14.06622909       3.95739165
O        7.62964844       2.15569091       6.28355780
H        8.18773063       1.59182721       6.88772157
H        8.02083217       3.09165404       6.45645636
O       10.22897419      10.98487269       7.24389206
H        9.89555972      11.56893125       6.43339540
H       11.19984985      11.14218455       7.37177615
O        6.95445778       8.82146829      12.03858194
H        7.40950805       7.98131535      12.25233421
H        7.60314899       9.49305224      12.47409066
O        8.48877345      11.57562057       5.21869857
H        8.01544531      12.34271385       4.76053069
H        8.74807555      11.02876287       4.41695826
O        3.29917529       3.52730192       8.57623594
H        2.69868880       3.71282259       7.80882943
H        4.12929714       3.24557947       8.18565072
O        4.77260074      15.05598051       3.17879078
H        5.21153989      14.27746735       2.69965825
H        5.53447246      15.57686836       3.53701637
O        5.47560096      14.35757006       6.13408817
H        5.88006375      14.33126435       5.22111943
H        6.26674186      14.10950101       6.61691920
O        4.25461938      11.46520485       3.16987327
H        4.45522176      11.46806138       4.11597199
H        5.08610719      11.23927646       2.69941193
O        3.71220779       7.91137782       2.33325143
H        2.92157033       8.50969439       2.39322568
H        3.44839220       6.96906697       2.57822870
O       12.68908708       7.73642765      13.07760172
H       11.91776605       8.27316794      12.72834232
H       13.12946826       7.54579805      12.21704576
O        6.53647098      13.42878776       1.34085718
H        6.54488877      12.50315835       0.94283174
H        7.10628478      13.95810930       0.78124296
O       10.88870562       1.54208483       5.65723512
H       10.66391875       2.12965636       6.44589857
H       10.44200503       1.87926225       4.91876300
O        1.32186484       3.36426354       1.34798502
H        1.36352645       4.37179472       1.29209295
H        1.83991372       3.03421400       2.15764123
O        5.40361477      12.89795136      10.73321441
H        4.70569447      13.62787050      10.94028653
H        6.02993079      12.88139636      11.50408071
O       11.29643670       1.67149119       1.26558116
H       12.20600956       1.95783698       1.02983422
H       11.44722676       0.83251227       1.76622319
O       11.46041228       9.22521276       1.92399352
H       11.99184056      10.04824244       2.27823791
H       11.27624853       9.32540826       0.92676501
O       10.48781708       6.05526262      13.16615043
H       10.64831100       5.04737582      13.13021203
H       11.33730675       6.43985178      12.92963696
O        1.98050955       3.25769274      13.48354281
H        1.94743820       2.90148940      14.49432728
H        2.54953881       4.06380887      13.72032047
O        1.80407150      10.06825967       2.55274919
H        0.97248984      10.34796929       2.06111749
H        2.34845147      10.88195902       2.50443417
O        0.71755508       8.79152437       4.62147482
H        1.35420773       8.38798577       5.25125249
H        1.27291490       9.18096161       3.88345866
O        7.25073429       6.23657623       1.85501486
H        8.23934626       6.12296780       1.81731245
H        6.96688546       5.55953656       1.18821785
O        3.40418800      13.14332862       8.86451770
H        2.85264439      12.94465029       9.61715621
H        3.33133650      14.18903210       8.72818052
O        5.04255655       3.00673877      13.83659443
H        4.32850587       2.60967914      14.33463937
H        5.73905300       2.34461072      13.91281801
O       11.11942167      12.74867667      15.11285256
H       10.34731593      13.37676005      15.02428038
H       11.89328431      13.16185260      14.85389139
O        2.00093647       1.85549156       3.38280095
H        1.48140516       1.08752939       3.55834325
H        2.86354361       1.49085722       3.02643303
O       10.87966856      14.38978992       2.38968252
H       10.15152067      14.52926713       1.75627691
H       10.47757454      14.40845146       3.30201558
O        9.68955775       2.13319700       3.37486510
H       10.22015558       2.03940260       2.56145753
H        8.75873047       1.75432548       3.20806756
O       11.92007446       6.73097678       8.59388558
H       11.60497365       6.57553997       7.61306057
H       11.08222603       6.44141360       9.02924820
O       14.34331334      13.98723855       9.10427309
H       15.28889007      13.94986856       8.79927016
H       13.81286543      13.38963760       8.58637227
O        8.88292898       9.65019911       3.28692040
H        8.55232099       8.74284017       3.11979588
H        9.75558221       9.67353908       2.86389463
O        4.89175606       1.88862994       6.99053141
H        4.72184083       1.03598246       6.46039092
H        5.71970815       2.21140446       6.49509525
O        0.08777546      10.22687263       6.95559940
H        0.15908864      10.08859531       5.99816328
H        0.70150659      10.99804674       7.12215568
O        7.68698516       5.86790077      12.81162915
H        7.60330736       5.21343578      12.07403288
H        8.65901419       5.88462092      13.04266572
O        8.83244378      10.53685109      12.48510055
H        8.65557785      11.43450977      12.24062792
H        9.60807178      10.28338188      11.87962069
O       11.70757873      13.52971385       5.94815678
H       11.92356035      13.14659625       6.79094509
H       12.35920486      14.14699089       5.61946423
O        8.23456044       3.17564157      12.61171612
H        8.53076789       3.30371044      13.52533925
H        7.56377875       2.42094373      12.69122576
O        9.54269666       6.07970743      10.41146174
H        9.83110444       5.16784190      10.46041019
H       10.04551747       6.46313828      11.13364798
O        3.66323515       1.38235210      15.25903958
H        4.26757378       0.82428802      15.81018382
H        2.81680874       1.12273494      15.60200274
O        9.12547826      15.75781807      11.30547304
H        9.83973982      15.14022244      11.46280983
H        9.06567911      16.30697251      12.07214977
O        9.00140057       3.28539804       0.23994709
H        9.55944612       2.47626225       0.38820233
H        8.26148954       3.18445301       0.93607244
O        0.09678255       0.33237678       2.91836384
H        0.29864009       1.10821784       2.33429903
H        0.05420999      -0.39369330       2.24234452
O        8.94369136      11.80578859       9.36968852
H        9.38857771      11.49753797       8.53441333
H        8.35898458      12.53342432       9.09301584
O        4.40575683      11.81557239       5.84378973
H        4.52584751      12.77825613       5.96310088
H        3.51819192      11.70603524       6.21524289
O       12.65104224      12.08447335       8.05052233
H       13.26829237      11.47355308       7.60035820
H       12.26865397      11.66988013       8.84683315
O        0.36291322      12.42441006       1.70243474
H        1.07952361      12.92386927       2.14997840
H        0.55461220      12.52864684       0.73161756
O        4.29816557       6.91448736      11.36621262
H        4.41485834       7.42425942      12.16291760
H        3.42550298       7.21518082      11.00857796
O       13.80608068       2.36496506       0.58652455
H       14.39382391       1.71866670       0.11911228
H       14.34716938       2.71946649       1.34185145
O        2.15340842      13.51158029      11.22211267
H        1.48035067      14.12446332      11.58230866
H        2.11487509      12.75184152      11.83433366
O        6.42818481      10.70459285       1.50053389
H        6.28292484       9.80525225       1.11226157
H        7.24650051      10.59785047       2.03240660
O        0.48372836      15.76563748      11.96942414
H        0.65345356      15.78581159      12.96615294
H        1.15419767      16.30199159      11.50259393
O       11.11063885       8.69025141       5.70762220
H       11.60322432       8.99320530       6.54349072
H       11.74322307       9.11061335       5.03801633
O        2.92625457       7.57052951       5.65683052
H        2.99700158       7.13558651       6.54577359
H        3.79223362       8.10083780       5.58149981
O        7.32026239       0.98578781       9.57886830
H        7.87061836       1.16761098      10.39548171
H        7.11513781       1.86607696       9.23805682
O        7.87260955      13.09096543      12.68928832
H        8.16333420      13.92113035      12.24874568
H        8.22705946      13.23887476      13.59985284
O        5.02853652       0.16857625      11.14745022
H        4.27303544       0.85789714      11.26461971
H        5.56330814       0.61511825      10.42662637
O       11.26237295       1.23327391      13.66876782
H       10.70965948       0.97771425      14.41057488
H       11.96073913       0.58751625      13.68868559
O        4.35307913       8.97312896      12.93695263
H        4.92342470       9.21625078      12.15911974
H        4.96243880       9.00938355      13.72860873
O        1.94467526      12.09221223       6.87775729
H        2.46937546      12.45211104       7.63893324
H        1.78405077      12.90585412       6.34083894
O       12.36237489      11.72753727       2.51740171
H       11.71272540      12.49160261       2.37477533
H       13.21485596      12.08273482       2.12343282
O        2.94362514       3.74370524       5.23916380
H        2.66374378       2.86817300       4.85078678
H        2.32514977       4.34517788       4.81391193
O       13.51415050       5.93903984      11.30072990
H       13.14745492       5.63379956      10.43509968
H       13.80180230       5.25910090      11.95071905
O       10.01477221       5.64375404       1.28305289
H       10.33664863       5.81103335       0.30107611
H        9.85374380       4.64346079       1.18111610
