342
Lattice="15.07779 0.0 0.0 0.0 15.07779 0.0 0.0 0.0 15.07779"  Properties=species:S:1:pos:R:3 pbc="T T T"
Ni       7.47929682       7.59041595       7.66451978       
O        7.11947125       5.73903988       6.62317142       
H        7.15725155       5.49376930       5.66972876       
O        8.22982442       9.04241743       9.00058384       
H        7.78081627       8.92210714       9.87887750       
O        9.17285149       7.82896670       6.35771667       
H        9.51329764       8.74519471       6.19629137      -
O        8.44800760       6.13898094       8.91861863      -
H        9.03253429       6.34344567       9.69868605      -
O        6.48868719       8.73157796       6.25007972       
H        7.10485336       9.23565904       5.65887835      -
O        5.63180671       7.48588292       8.77372776       
H        5.45762485       7.96252828       9.62637464      -
H        8.25530251      10.02378671       8.85552571       
H        5.82480253       9.38997337       6.57187707       
H        5.35299415       6.54698869       8.92960270      -
H        6.33000430       5.27485067       7.00014471      -
H        9.07221715       5.73687601       8.26483980       
H        9.93346267       7.25441231       6.61700827      -
Cl       8.20857534      -0.26774565       0.10920010       
Cl       0.26096380       0.37526891      -0.28238465      -
O       13.23476002       1.85670316      13.01496100      -
H       13.89418920       1.35466563      13.55114319       
H       12.36932072       1.64567202      13.44768032      -
O        7.28666475      13.79749516       9.21713265       
H        7.44424069      14.73671735       9.46142598      -
H        6.58820260      13.47595555       9.84216832      -
O        7.06009480       4.13431034      10.32778397      -
H        7.42377783       4.71680944       9.61956692       
H        6.07576764       4.20131620      10.24525616      -
O        4.25017334       4.31755037       1.61366896       
H        3.32188760       4.50295633       1.32786512      -
H        4.81682060       4.79684095       0.96346286      -
O       13.72304782       4.56911649      13.46855774      -
H       13.52113813       3.60098266      13.50723109      -
H       14.68539473       4.62320129      13.24701488       
O       10.07197392       2.94817754      10.55363960      -
H        9.63055983       2.99465986      11.43727642      -
H       10.79129256       2.27372014      10.63785892       
O       10.96375633       6.43620518       0.60975965       
H       11.47480978       6.94571756       1.28131673      -
H       11.44494015       6.61021585      -0.23564088      -
O       10.26362845      13.43264414       4.40579396      -
H       10.77677715      12.60345625       4.26536002       
H       10.76663711      13.86988751       5.13392903      -
O       13.06966810       8.28645109       7.55740091       
H       13.96288474       8.68255632       7.70692795       
H       12.55360572       8.45776277       8.38407138       
O        6.92029948       1.75023120      13.24261550      -
H        7.10386107       1.39539176      12.34050587      -
H        7.23538756       1.05246877      13.86713131      -
O        6.62199863       4.07839088       4.39982701      -
H        5.68464379       3.78111349       4.28399204       
H        7.17363304       3.51431904       3.80911009       
O        4.90551749      10.05927633       9.89781868       
H        5.23522866      10.80790640      10.45187923      -
H        5.21176034      10.29788401       8.99013020       
O        1.82880177       3.18304517       7.62402538       
H        2.71577795       2.74544974       7.65153698       
H        1.57961216       3.24603044       8.57365227       
O        2.58221160      14.01031462       5.07159165       
H        3.47111833      13.76924438       4.70389483      -
H        2.66739487      13.83445295       6.03966378      -
O        1.70849760       3.82016725      10.44086582      -
H        2.66713097       4.03687859      10.32433903       
H        1.48211001       4.30574943      11.27494332      -
O       12.44353508      11.83615028       4.48599150       
H       12.75584352      12.52466104       5.11471276      -
H       12.82255015      12.08728313       3.60905577       
O        2.63709795      10.94229551      12.35106119       
H        3.39847156      10.37783918      12.63348661      -
H        1.94044826      10.30516442      12.06366268       
O       13.10331159      10.78373334      11.36273227      -
H       13.24004365      11.74300302      11.56578424      -
H       14.00392991      10.38081909      11.44907088      -
O       11.34761977       8.91704354       9.63371372      -
H       10.38480346       9.03922588       9.47650050       
H       11.59464441       9.58757764      10.31024341      -
O       14.13716543       5.30892585       0.96862920       
H       13.70491492       6.11956156       1.32634598       
H       13.85017460       5.24228770       0.02393699      -
O       11.66395167       7.13434655       4.53073857      -
H       11.43075502       8.01845980       4.90099037       
H       10.81534947       6.80363908       4.15172764      -
O        1.91028072       7.27398921       3.27287362       
H        1.12357670       7.82222820       3.49423019       
H        2.59870080       7.62884712       3.88898550       
O       10.78780993      13.36824746      10.08815446      -
H       11.65155264      13.69824294       9.74536433      -
H       11.00201485      12.93364528      10.94903329      -
O       11.53319483       1.44722809       7.48631191      -
H       12.27908810       2.08480004       7.38755438      -
H       10.77068559       1.95808386       7.85083893       
O        5.06602436       5.25271363      14.21731775      -
H        4.87322055       4.36510335      13.83281371       
H        5.79041733       5.61038484      13.64632634       
O        9.05164171       7.12153469       3.63059676       
H        8.32513639       6.66850453       3.13407726      -
H        8.70121254       7.32268741       4.52746790      -
O        6.65230451       0.57396331       4.70346654       
H        6.67022872       1.08208347       5.55085276       
H        6.24084694       1.19208987       4.05256121       
O       12.98157560       5.56055751       7.39962780      -
H       13.26162394       4.95789270       6.67030435      -
H       13.11091926       6.49102287       7.08957764      -
O        5.22087840       1.86911489       2.65792496       
H        4.37071927       1.45498724       2.94597996       
H        4.93376234       2.69565560       2.19994293      -
O       12.09912465       0.97920004      10.77177594      -
H       12.59891741       0.71399146       9.96695588       
H       12.75520037       1.36610607      11.40342613       
O       10.25805621       5.46636009       7.03881189      -
H       11.23450428       5.43890744       7.19657928      -
H       10.10455944       5.21534686       6.08827095       
O        5.65873099       8.21711894       0.42350121       
H        6.09945203       7.38605114       0.71311108       
H        4.72265127       8.12791965       0.73950348      -
O       12.81008275       7.64424840       2.11816257       
H       12.66117369       8.58851836       1.87412838       
H       12.57016651       7.55934132       3.07436902      -
O        0.58461263       9.87599568      10.91167964       
H        1.02870556      10.40655201      10.20651550       
H        0.77937143       8.95244354      10.61422829       
O        3.13964488       7.90737990       7.45026077       
H        4.01740347       7.81643160       7.89155380      -
H        2.95749602       7.01527555       7.05984308      -
O        1.57476261       7.65112520       9.72095461       
H        0.91987927       6.93416070       9.53743074       
H        1.96363525       7.87902572       8.84210268      -
O       11.17538699      10.01493834      13.43941947       
H       10.31807032      10.35893354      13.08561805      -
H       11.84099882      10.51672354      12.91239264      -
O       13.56940677      13.42838755      12.05226775      -
H       13.34805985      14.24167524      11.54784331       
H       14.51800708      13.51600840      12.31955101       
O        4.38872415       4.46498811      10.75829177       
H        4.43918900       4.02620701      11.63961091       
H        4.28830417       5.43490592      10.95045211       
O        2.86556517       6.80441367      13.69196154      -
H        2.70770349       7.43975900      14.42968282       
H        3.69690137       6.33752233      13.94843797      -
O        5.00485381       5.10282999       8.03248424       
H        4.22477456       5.23881592       7.43917676       
H        4.83332578       4.20409180       8.40902655      -
O        9.54368637       4.43142013       4.73183764      -
H        9.58621327       4.75472252       3.79950030      -
H       10.10445592       3.61801852       4.72571868      -
O       13.37594033       3.13418081       6.20004715      -
H       14.30353877       2.83476451       6.08618130      -
H       12.90437411       2.86450778       5.37294196       
O        9.30561789       2.94526586       8.00628483       
H        9.37826545       3.04807057       8.98873427      -
H        9.59989391       3.81094084       7.63576090       
O        7.76224583      12.66632012       4.75981912       
H        7.40997533      12.79548548       3.84427082      -
H        8.66002438      13.08015352       4.72680935      -
O        6.87420168       2.45022781       6.70072372       
H        7.69888197       2.52944390       7.24016388      -
H        6.95364748       3.17113862       6.03057065       
O       11.02592775      11.64453207       7.69122622      -
H       10.90465388      10.92934431       7.02377131       
H       11.91763325      11.46408849       8.08131770       
O        7.14401473       8.65351936      11.42564127      -
H        7.19561706       7.73213620      11.78200421       
H        7.78733111       9.20810589      11.93312708       
O        8.49659926      10.07766047       5.13154036      -
H        8.22466556      11.02842918       5.12610026      -
H        8.88109631       9.94707822       4.23036327       
O        2.85324908       5.38719030       6.46022328       
H        3.12894650       5.02922100       5.58113615      -
H        2.26712170       4.69108752       6.84905529      -
O        5.04804307      13.46935202       4.17093705      -
H        5.32051717      13.42685488       3.22207771      -
H        5.64349306      14.16422619       4.54842982       
O        6.14471959      13.06880396       6.89570279      -
H        6.70529699      13.06068903       6.08066579       
H        6.72139479      13.39545820       7.62759267      -
O        5.13701619      10.67325469       3.96370013       
H        5.25617381      11.59344963       4.29599263       
H        5.89513801      10.49662256       3.35408716      -
O        3.01240763       8.30095684       0.95043375      -
H        2.88452693       9.24789359       1.21252175      -
H        2.59349257       7.80784553       1.69566692      -
O       11.50328983       7.35448687      13.23671375      -
H       11.37694870       8.33346933      13.24495138       
H       12.17351665       7.16826243      12.53873353       
O        6.73132731      12.95191854       2.20972691       
H        6.73677210      12.06161860       1.78163573      -
H        7.13830967      13.57205155       1.56075574       
O       11.19046415       2.24082197       4.88609627      -
H       11.06721793       1.81586953       5.76615540       
H       10.66015420       1.66494087       4.28146244       
O        1.60997512       4.88445065       1.78869137      -
H        0.78353336       5.14331279       1.30779606       
H        1.68642452       5.56463394       2.50002622       
O        5.64943785      12.58960742      10.94034366       
H        4.76176192      13.01744228      11.01630256       
H        6.14642869      12.78910711      11.77055282      -
O       10.52173615       2.02789950       1.22285962       
H       11.46233786       2.29714149       1.06087627       
H       10.60418184       1.16758079       1.69987576      -
O       11.70630326      10.07111541       1.15552055      -
H       12.07821942      10.97354140       1.30417110      -
H       11.51425127      10.03832705       0.18502244       
O        9.29244316       5.94589503      13.66956264      -
H       10.00668765       6.36940295      13.12913535       
H        9.48496686       6.23371973      14.59082111       
O        1.28568958       4.80477351      12.91327845      -
H        1.69573718       4.03095527      13.36438207       
H        1.76853968       5.60888505      13.23815967      -
O        2.99775415      10.72515156       2.12904753      -
H        2.29821596      11.27411216       2.54892496      -
H        3.75033542      10.75288030       2.76461204      -
O        0.80335697       9.74685073       4.79010153      -
H        1.78509500       9.62358257       4.76596541       
H        0.65969607      10.60114161       4.32063954      -
O        7.19026436       5.80709871       2.10150004       
H        7.86439124       5.13239213       1.82905657      -
H        6.64379577       5.32971428       2.76665566      -
O        3.48933861      13.20724441       7.62893542       
H        3.41174503      13.55452440       8.54723338      -
H        4.42847973      13.38173787       7.37499843      -
O        4.54444219       2.82593724      12.93383438       
H        3.71116309       2.39858971      13.24694481       
H        5.31271112       2.28986189      13.25209764      -
O       11.14032391      12.72646843      12.73967282      -
H       10.42330609      13.18931704      13.22413217       
H       11.96903247      13.21285883      12.95969277       
O        2.86603772       1.47561402       3.89829194       
H        2.06891606       1.58863523       3.32035156       
H        2.67847523       0.69364132       4.46877625       
O       10.66881034      14.41941133       1.92045818      -
H        9.88973128      14.28370279       1.33142769       
H       10.28006194      14.41469990       2.83275060      -
O        9.21713449       0.87221322       3.68853309       
H        8.75534382       1.46601118       3.04890769       
H        8.46986937       0.54512254       4.24162998       
O       14.81052278       5.64993640       9.48692124      -
H       14.22118203       5.47848896       8.71124782      -
H       15.35984195       4.84267579       9.61642482      -
O       13.25021336      14.16745722       8.98335047       
H       13.05901211      14.22693298       8.01943496       
H       13.65833231      13.27117545       9.06297122       
O        9.38271339       9.54824293       2.58041581      -
H        9.43568853       8.57362470       2.73331827      -
H       10.20001724       9.79162931       2.08245978      -
O        4.47398820       2.51733090       8.15700225       
H        4.55594366       1.96833478       8.97575711      -
H        5.27368947       2.32147535       7.61227330       
O        0.23457947       9.83510876       7.44940791       
H        0.40807093       9.84304570       6.47310190       
H        1.12269109       9.91445319       7.87051368      -
O        6.98844952       6.07524832      12.40302942       
H        7.10092382       5.36850271      11.72146551      -
H        7.83752317       6.05302514      12.91223327      -
O        8.81571347      10.70380804      12.07021336      -
H        8.35602733      11.49714650      12.44072209      -
H        8.99307022      10.97982523      11.13599451      -
O       11.75268650      13.98330433       6.59009506       
H       11.29062437      13.27517449       7.10762001       
H       11.48508145      14.84903504       6.98349576       
O        9.08721508       3.34372424      13.01199114       
H        9.18969815       4.27003828      13.33922232      -
H        8.17873201       3.04030579      13.24478048       
O       10.16267537       5.77928347      10.82363643       
H       10.29601486       4.80853354      10.71356533       
H       11.08707406       6.12378366      10.87302324      -
O        1.99595183       2.24931539      13.06530086       
H        1.70468980       2.20869787      12.12731406      -
H        1.44129993       1.59653339      13.56039518       
O        9.35485600      15.05683538      11.61370070      -
H       10.00613730      14.65930801      10.98165050      -
H        9.90085924      15.45902507      12.33571181      -
O        7.71285001       2.35690619       1.94003450       
H        8.28334154       2.12240168       1.17096799       
H        6.92092412       1.77851532       1.83663263      -
O        0.91643208       2.18096968       2.21689091       
H        1.14432020       3.12480121       2.03905177      -
H        0.96720985       1.71445993       1.35005510       
O        8.89728726      11.52163867       9.40845563      -
H        9.77746393      11.73235369       9.00514843       
H        8.43755643      12.39572635       9.40165081      -
O        4.99435706      10.68124898       7.29443487      -
H        5.46485765      11.53547661       7.11847687      -
H        4.04008781      10.91865045       7.29348306      -
O       13.54054148      11.48147928       8.72677306       
H       14.22186999      10.97255174       8.22197262       
H       13.45194676      11.02452768       9.59615140      -
O        1.07840614      12.28060887       3.58922608      -
H        1.55508609      12.90294835       4.19735460       
H        0.56463193      12.86822234       2.99863886       
O        4.02277295       7.10329032      10.92225105      -
H        4.04818628       7.56223101      11.79851571       
H        3.09888494       7.25224957      10.60530137      -
O       13.12217667       2.69094359       0.79868597       
H       13.82776919       2.02294820       0.94470707      -
H       13.48354191       3.52843315       1.17412741       
O        3.01298141      12.94962852      10.56383291      -
H        2.42069410      13.54579209      11.07999136       
H        2.92852584      12.09906700      11.06913542       
O        6.84245680      10.28070837       1.88673771       
H        6.42674845       9.61180694       1.28946250       
H        7.77921106       9.98836176       2.00340776      -
O        1.21276119      13.38658727      12.66376821      -
H        1.64002571      12.53862235      12.93451933      -
H        1.22802023      13.96032047      13.46721738       
O       11.47320909       9.58321135       5.84108709      -
H       12.21785395       9.22903732       6.39218624      -
H       11.88290857      10.24073586       5.22866576      -
O        3.34204061       8.88510556       4.93684772       
H        3.45428746       8.66298831       5.89074744       
H        4.12626298       9.42579737       4.67759937       
O        7.44832819       1.37527118      10.52663493      -
H        8.36115253       1.09651323      10.79435439      -
H        7.49558919       2.33917806      10.30889816      -
O        7.68990712      13.14666379      12.65480997       
H        8.25256439      13.81770845      12.18960771      -
H        7.65340299      13.49001685      13.57932846       
O        4.70328513       1.16376662      10.49728135       
H        4.49697474       1.76881315      11.24505331      -
H        5.67132198       1.00598599      10.59133402      -
O       10.64450621       1.28398526      13.63586204       
H       10.19265475       2.15813043      13.53103455      -
H       10.36926037       1.03111473      14.54888458       
O        4.72486476       9.07308900      12.76818301      -
H        5.49935096       9.12326192      12.15762325      -
H        5.10635492       8.78310900      13.63004660       
O        2.39479702      10.65549563       8.97866185      -
H        3.18656157      10.28754994       9.44887759       
H        2.56823998      11.62380239       8.94368865      -
O       12.67130328      12.64227775       1.83761532       
H       11.91865286      13.29437098       1.83927163      -
H       13.34188726      13.06116065       1.25714064       
O        3.89207370       4.00230336       4.34600726       
H        3.47819901       3.10252379       4.31825332       
H        3.87224730       4.31455400       3.41017255       
O       12.80957016       6.01324548      11.39501776       
H       13.55724849       5.99554118      10.75511188      -
H       13.04494941       5.33911190      12.08020305       
O        9.59214678       4.55295843       1.96658308       
H       10.23330306       5.08640634       1.43755864       
H        9.83461808       3.61271794       1.78823519       
