570
Lattice="18.936975354596978 0.0 0.0 0.0 18.936975354596978 0.0 0.0 0.0 18.936975354596978" Properties=species:S:1:pos:R:3:forces:R:3 energy=-89697.95697391321 stress="0.0 0.0 0.0 0.0 0.0 0.0 0.0 0.0 0.0" pbc="T T T"
C        9.57184550      10.23396527       9.38267884       0.01530186       0.02578089      -0.00467414
H        9.17042425      11.05131324      10.02210393      -0.02611959      -0.00867368       0.02034130
O        9.38174422       8.96219944      10.01989208      -0.05126818       0.01174923      -0.05241529
C       10.02159048       8.84331479      11.31457273       0.02740253       0.01038202       0.00229066
H        9.63400251       9.63979370      11.98554288      -0.00180575       0.02320024       0.01368407
O        9.73199868       7.58461662      11.80642831      -0.00424654       0.00946393      -0.00633259
H        9.10025522       7.64316434      12.56562018       0.00948221       0.01133674      -0.01139634
C       11.53129225       9.00979951      11.10690203       0.03542855       0.01556073      -0.00201125
H       11.86828365       8.18569568      10.44275283      -0.00293724      -0.01749876       0.01123749
O       12.18678285       8.92318182      12.37344949       0.00338380      -0.01671869       0.00684408
H       13.10689429       9.24610009      12.23923041       0.01356980       0.00065217      -0.00211745
C       11.81787803      10.36599000      10.46088714       0.02321137       0.00234497      -0.00522799
H       11.47618887      11.16080232      11.15146561       0.00768102       0.00947303      -0.03009787
O       13.23937313      10.58713355      10.35150610      -0.03103911      -0.00347986       0.04956429
H       13.59467352      10.04506323       9.61277613      -0.01379885      -0.01222429      -0.01539426
C       11.06809744      10.51742167       9.14057961       0.03170901       0.00783690       0.00132228
H       11.44687483       9.75727261       8.41877871       0.01325570      -0.00873353      -0.00630443
O       11.29916397      11.83447938       8.64424573       0.00662861       0.01384387      -0.01414630
H       10.51571215      12.11246063       8.09469915       0.00479885      -0.01454398       0.00929926
C        8.76461871      10.17931400       8.08418002       0.00312342      -0.00473892       0.02195161
H        7.72705968       9.89495566       8.33436528      -0.04245105       0.00301617      -0.03111012
O        8.79523783      11.46383454       7.44589744      -0.01237404      -0.00697327       0.01769083
H        8.98183914      11.33573510       6.48203600       0.00625543       0.00244186       0.00171485
H        9.18388252       9.40184124       7.42034666       0.00207138      -0.01327977       0.00607217
O        1.28002212       3.30998287       0.28094568       0.02122008      -0.00320099       0.00788976
H        1.21830044       2.99981670       1.21919309      -0.02221792       0.00821292       0.00503388
H        2.16354068       2.95802661       0.02450910       0.00474905       0.00575568      -0.01771561
O        1.60541585       1.93698409       2.59022194       0.03310520      -0.00038630      -0.01932814
H        2.56596392       2.13891633       2.45872157       0.00058579       0.00296452      -0.00124355
H        1.35298300       2.30934607       3.46695240      -0.00256387      -0.00510683      -0.00543042
O        3.53696754       1.30331991       5.17628531      -0.03719989      -0.00208872       0.00256177
H        2.91979917       1.99163379       5.52281497       0.01834723      -0.03481860      -0.00173220
H        3.02759629       0.46378660       5.17383580       0.03249611       0.04684582       0.00514070
O        1.03155066       3.08090004       8.54709679      -0.00831337      -0.00896389       0.01327930
H        1.04589777       3.88003937       9.12757629      -0.00991989       0.01367012       0.00866401
H        1.34161020       2.34284612       9.12892268      -0.00073369      -0.01333935      -0.02461211
O        1.95414645       1.16319899      12.89461690      -0.00390916      -0.01840732      -0.01999369
H        1.12492446       1.49470566      13.31538131      -0.00357774      -0.00975611      -0.00334080
H        2.03895034       0.20851023      13.14952189       0.00211583       0.02707371       0.00967741
O        1.50600489       6.03567203      -0.41819078       0.02533565       0.00121223       0.00553494
H        1.33264005       5.12842094      -0.06837626      -0.03049884      -0.00494833      -0.00310404
H        2.21571295       6.40399751       0.16590906      -0.00864305      -0.00944140      -0.01042754
O        2.25792182       3.56824499       6.19317103      -0.01912290      -0.00343517       0.00479990
H        1.91066655       3.36949568       7.10167281       0.02350503       0.00337654       0.00237278
H        1.45945474       3.87521750       5.71171912      -0.00743996      -0.00317913      -0.00580371
O        1.06650264       5.24204969      10.26645235       0.00235400       0.00093430       0.00751908
H        0.72162451       6.04397945       9.80452776      -0.01411960       0.00229469      -0.00905501
H        0.28711326       4.90980189      10.78431763      -0.00295643      -0.01984370      -0.01531200
O       -0.13254519       2.60253691      13.89459565      -0.00421214       0.00302322      -0.00329001
H        0.19472043       3.45218598      14.27400283       0.01401187      -0.01382977      -0.00706537
H       -0.73441059       2.20443406      14.57228234      -0.00944363       0.01618437      -0.00492820
O       -0.67999419       7.81498749      -0.29060979      -0.00756140      -0.00061456      -0.01060560
H       -0.99380368       7.57862783       0.61579011      -0.01997921       0.01390547       0.01831092
H        0.08382395       7.20467329      -0.42228938       0.00638395      -0.01516272      -0.00965550
O        0.91162128       9.12369366       6.66563626       0.00163138      -0.00322422      -0.01712392
H        0.92967025      10.09329524       6.46993867      -0.00923521      -0.00291313       0.00587190
H        1.82304403       8.85447224       6.39683504       0.00174043       0.00711918       0.00518193
O        0.91752664       8.17953791       9.37968960      -0.00241165       0.01572652      -0.00886292
H        0.93779368       8.67115068       8.52394345       0.00778321       0.00209539      -0.00662856
H        1.00621698       8.85498465      10.09710428       0.00810625       0.00158409       0.01006674
O        2.60256958       6.27005485      12.39608436       0.01485939       0.00847667      -0.02663504
H        2.21773779       6.21459809      11.49310728       0.00842541      -0.00904354      -0.00769660
H        3.57276114       6.12076775      12.30371557      -0.02515793      -0.00554068       0.01380045
O        1.17890175       5.01750449      14.25233397      -0.01473114      -0.00141977       0.01051512
H        1.65461851       5.31621036      15.06911899      -0.00658939       0.00083777      -0.01205119
H        1.65806874       5.49765433      13.52711605      -0.00286542      -0.00304720       0.00462967
O        1.64136368      11.59620744       0.70300704      -0.01163311       0.00018624      -0.01344447
H        0.96106992      11.17199855       0.11942590      -0.00856112       0.00760431       0.00404335
H        1.21063327      11.57680492       1.59271463       0.00156573      -0.02203828      -0.00440455
O        1.23311786      11.65288782       5.57225912      -0.00043264       0.01179577      -0.01060796
H        0.91102002      12.27852298       6.26508481      -0.00287455      -0.00314280      -0.00049923
H        2.20386985      11.82021667       5.54699240       0.01003616      -0.01520326      -0.00219097
O        1.69769459      12.80107906       7.90018272       0.01670901       0.00361360      -0.01170647
H        2.60825722      12.41942579       7.93396949      -0.00618781      -0.00775017      -0.00808866
H        1.39542820      12.68692151       8.83371638      -0.01130803       0.00323888       0.00670600
O        1.15636643       9.93114763      11.57313806      -0.01781322      -0.00090379       0.00624704
H        1.40099190      10.83779513      11.26367412       0.00001554       0.01361434       0.00556491
H        0.36341227      10.07460872      12.14779728       0.00232107       0.01447751       0.00461437
O        2.76128330      13.64871629      -0.79922802       0.01084369      -0.01607488      -0.01580780
H        2.25626629      13.13227440      -0.11933915      -0.01639344      -0.00007939      -0.01313781
H        3.48322628      13.03259120      -1.04915992      -0.00554245      -0.00557391       0.00133264
O        2.76198108      16.55429825       5.10037602       0.00974715       0.01565529      -0.00554390
H        3.66946095      16.57245966       4.71693861      -0.00463782       0.00345876       0.00717037
H        2.22239748      17.18440257       4.56915365       0.00197278       0.00038565       0.01468846
O        0.14472325      14.42351648      11.45500670      -0.00984837       0.00430461       0.00317185
H       -0.82457212      14.22310526      11.44056060      -0.00180113      -0.01446806       0.01072040
H        0.25365538      15.12386063      10.76378337       0.00988499       0.02453551      -0.01367633
O        3.74383696      13.56852722      14.07917567       0.00667942       0.00363507      -0.06144370
H        4.20228451      12.69169064      13.95876547      -0.01151998       0.00287639       0.00062528
H        3.59002392      13.88348980      13.16181490       0.01011208      -0.01947576       0.07148985
O        1.41880346      13.72271417      15.61591243       0.00732782      -0.01920654       0.01115336
H        1.77007235      13.85189562      16.53008628      -0.00445831      -0.00457377      -0.03901475
H        2.21802192      13.51459918      15.07102969      -0.00585905       0.02187192       0.02630073
O        1.20507710      18.61652731       4.02837562      -0.03242137       0.04515931      -0.01560718
H        1.49801832      19.17586984       3.26525970      -0.00373242      -0.01856360       0.00546543
H        0.73917226      19.28592399       4.58928151       0.01285023      -0.01665087       0.00711482
O        1.88425754      15.45628779       7.43138558       0.00340287       0.01336444      -0.00154022
H        1.70987719      14.48537171       7.38427490       0.00389822      -0.01152491      -0.00175990
H        2.03873094      15.78160567       6.51061590      -0.00021774       0.00311915      -0.00963694
O        0.45395861      16.41272527       9.57020018       0.00754338       0.00175480       0.00284675
H        1.12178397      17.04501552       9.92700089       0.00202757       0.01380245       0.00709500
H        0.85127259      16.12085368       8.71218597      -0.01458759      -0.01219636      -0.02132086
O        2.30153515      17.46828731      13.12072144      -0.02571930      -0.01875121      -0.02693580
H        2.38716244      17.28585888      12.15776207       0.02099910      -0.00450874      -0.01234988
H        1.57759671      16.87587327      13.43756212       0.01056953       0.00222664       0.02815814
O        0.33693007      15.64027922      13.89167854       0.02027044      -0.02716982      -0.00807625
H        0.65546987      15.05912945      14.62561845      -0.00330816       0.01841687      -0.01686292
H        0.35762749      15.06878032      13.08349525      -0.00781213       0.01330577       0.01840944
O        3.82698913       2.70155751       1.39013924      -0.02444875      -0.00793475      -0.01566258
H        4.63980256       2.18502065       1.60736656      -0.00974296       0.03388758       0.00044876
H        4.04608808       3.61171799       1.70755834       0.00422091      -0.01724603       0.01074715
O        2.39983803       1.41612831      10.24019420       0.00616137      -0.00286324       0.01724376
H        2.08273077       1.35979386      11.17970107      -0.00717336      -0.00134698       0.01138282
H        3.10534987       2.10625704      10.29054002       0.00004276       0.01679589       0.00476516
O        5.18871241       1.34332938      14.44432026       0.01314471       0.00012035       0.01622926
H        5.73842097       1.91580020      13.86489354       0.00803501      -0.00272678      -0.00883503
H        5.40365581       0.41427831      14.16564023      -0.01248587       0.01194157       0.00980606
O        5.95642508       1.32866925      17.09651669      -0.02205441       0.00365013       0.03108935
H        5.77969485       1.19668953      16.12932259      -0.02034717       0.01360190       0.00193695
H        5.19900672       1.90331915      17.36091751       0.03107754      -0.01149903      -0.01963594
O        3.73731128       7.01117141       0.69637792       0.00320575       0.00513771       0.01343329
H        4.21374034       6.35026280       1.25556093       0.00896860      -0.00424591      -0.00548262
H        3.68565305       7.81139104       1.25817300      -0.00124812       0.01888637      -0.01687885
O        4.67924916       5.11902304       2.43448344       0.02724021       0.00535422       0.02322775
H        5.63109396       4.92244048       2.61949585      -0.01000393       0.00884901      -0.00741199
H        4.34522524       5.54329157       3.25988006      -0.01149813      -0.00228084      -0.01377710
O        5.89048622       2.54499903       5.24836030      -0.00910457      -0.00364174       0.00019933
H        5.51796621       3.38228287       5.61863656       0.01322497       0.04115102       0.00286245
H        5.21023463       1.86380634       5.47073416       0.00922231      -0.01337480      -0.00054440
O        3.60416062       3.85675780      10.71943611       0.01049006       0.00158801      -0.00377740
H        3.66970780       3.82137140      11.70536638      -0.00323381      -0.01246149       0.00275247
H        2.76191525       4.34595799      10.56192007       0.00088426       0.01228168       0.00527280
O        3.32764295       3.29010282      13.60392164      -0.01236089      -0.00115626       0.00334585
H        3.21724799       2.31340648      13.47588237      -0.00122223       0.01234348      -0.01109576
H        2.41771181       3.61787266      13.79350679       0.00564267       0.02359901      -0.01563574
O        4.33083892       3.41507496      16.27809063      -0.00928569       0.00638020      -0.00078334
H        3.79848173       4.24350681      16.37611291       0.01128369      -0.02893423      -0.03754880
H        4.02415349       3.01691999      15.42822938       0.00416761       0.01538408       0.02853089
O        5.47938067       8.98945741       2.69564858       0.01186588       0.01715115       0.00255759
H        4.95534941       9.47232712       2.00569196       0.02318690      -0.00704740      -0.00017020
H        5.82029209       9.74656372       3.23524746       0.01711813       0.02172465       0.00857431
O        4.49303174       6.96061318       4.41042295      -0.00203986       0.01095652       0.00398417
H        4.98113047       7.56105613       3.79540428       0.00304037      -0.00239906       0.01486693
H        3.95565080       7.59700164       4.93971842       0.01293391       0.00850014      -0.00153085
O        4.71770539       4.86553858       6.32396914      -0.01236846      -0.00684660      -0.00691767
H        3.77095354       4.60021796       6.21619159      -0.00229371      -0.00079373       0.00955930
H        4.83937582       5.63561390       5.71763224       0.00498714       0.00771926      -0.01321284
O        5.16829836       5.58233048       9.08033426       0.00673297      -0.00044114      -0.00216425
H        5.00543337       5.31793295       8.14218907      -0.00089209      -0.00550167       0.00561806
H        4.90500165       4.79980884       9.62128531      -0.01185452       0.01121763      -0.00740727
O        5.04584413       5.38414388      13.32779671      -0.00234482      -0.06524422      -0.00199957
H        4.51800480       4.62735586      13.68249860       0.02685653       0.02737984      -0.02069267
H        5.89790524       4.95147598      13.08398829      -0.03002547       0.03206127       0.02835023
O        2.85866131       5.72798915      16.21299023       0.00764248       0.02359877       0.00570490
H        3.37591504       6.52163438      15.92868968      -0.01229572      -0.01048209       0.00031621
H        2.40755849       5.96610492      17.06206370       0.00584472       0.00287831      -0.00283153
O        4.34014927      10.70613938       0.97717148      -0.00845418      -0.03760449       0.00062602
H        4.87062345      10.91095350       0.17212978      -0.01380141      -0.01256721      -0.01804817
H        3.40068900      10.93648576       0.78265974      -0.01381404      -0.00505471      -0.00571518
O        3.57146765       9.03227682       5.95511009      -0.00212964       0.00579084       0.00412083
H        4.08239827       9.07716716       6.80306981      -0.01075995      -0.00405063       0.00696381
H        3.71996891       9.90486438       5.52901756      -0.00270158       0.00549227      -0.01078210
O        4.81598869       9.33519155       8.35762281       0.00421727       0.00144639      -0.00812837
H        5.69386104       8.89665610       8.47765362      -0.01006383      -0.00238313       0.02076240
H        4.29886640       8.95726931       9.11285012       0.03138218      -0.00909559       0.00129532
O        1.78801892      12.46172203      10.59562171       0.00175077       0.00816208       0.01138184
H        1.21508244      13.14306902      11.02923775      -0.01656326      -0.00890416      -0.00007327
H        2.70925599      12.81026186      10.66630893       0.01449071      -0.01176141      -0.00536322
O        3.48249879       9.10996105      12.78923294      -0.00409261      -0.01575846       0.01682376
H        3.74196915       8.54343253      12.02288334      -0.00002127       0.00938281       0.01275022
H        2.54513099       9.34396127      12.57846037      -0.00069848       0.00100410      -0.02154933
O        4.46318526       7.58719739      14.88850254      -0.02013263      -0.00344892       0.00388719
H        3.92157145       8.08930471      14.22610182       0.01103687       0.00862282      -0.00152050
H        4.86359841       6.85912469      14.35085157       0.00365155       0.01806591       0.00376318
O        6.12933893      13.88881038       2.87660512       0.05003020       0.03961200       0.02440243
H        7.04645053      13.93408892       3.25771058      -0.03146321      -0.00062690      -0.02999880
H        6.25499523      13.99193347       1.90356166       0.01767903       0.00037361      -0.02129768
O        4.09222001      12.10533487       5.47775388       0.00408762      -0.01974155      -0.00655096
H        4.13256445      12.94729320       4.97342725       0.00479368      -0.01457074       0.02267982
H        4.33668870      12.33399963       6.41234646       0.00177250       0.01233651      -0.00697710
O        4.36384012      12.02700639       8.09633663       0.00607063      -0.02261157       0.00092142
H        4.55429802      12.56867435       8.90194150      -0.00314190       0.02406951       0.00381422
H        4.61454070      11.09962710       8.32510611      -0.00511650      -0.01909115      -0.00997974
O        4.37009147      13.57475013      10.32563919       0.00297438       0.00883491      -0.00070606
H        5.22086663      13.62334859      10.82858806      -0.00144190       0.00456703      -0.00382958
H        4.29821791      14.46565952       9.89611990       0.00363165      -0.01243444      -0.00461705
O        4.97779889      11.26064766      13.63392808       0.03158357      -0.04497963       0.02696953
H        5.54490827      10.81162549      14.30497569      -0.02642429       0.02655280      -0.02376258
H        4.44484136      10.52650410      13.24093086       0.00528127       0.01286391       0.00335666
O        4.74578560      15.66222218      17.99175624       0.00765682      -0.01071093       0.01128489
H        3.86833368      15.28614845      18.23625895      -0.02015202       0.00098730      -0.00122134
H        5.39862286      15.04696370      18.40897975      -0.00412000      -0.00763640      -0.00258176
O        5.53364634      16.37982476       4.24235371       0.02785337      -0.02341205      -0.02629738
H        6.00775285      17.03044963       3.67005337      -0.00152795       0.00257774       0.00664081
H        5.65019180      15.52628166       3.75582253      -0.00406075       0.01444540       0.00165467
O        4.10800087      15.84664020       8.82711598      -0.01088783       0.04167439      -0.00660736
H        4.87579019      16.00690960       8.22486180       0.00788751      -0.00664000      -0.00118823
H        3.34935090      15.64768539       8.22110959       0.00876236      -0.02113700      -0.00370177
O        2.86869228      17.66165379      10.36743714       0.01773226       0.00134831      -0.00842285
H        2.88104853      18.62228819      10.13140058      -0.01007289       0.00822719       0.00364912
H        3.35042593      17.17949509       9.65007198       0.00045118      -0.01386217      -0.00020910
O        5.44464099      15.40941250      15.32306744       0.01922605      -0.01270835       0.00161968
H        4.82971890      14.77455696      14.88098905       0.00023881       0.02971625       0.02328109
H        5.07018272      15.54792533      16.22685201      -0.01795656      -0.01202509      -0.02345359
O        6.35155960      17.88057602      18.47424406      -0.01474961      -0.00122487       0.00827527
H        5.56802379      17.30745476      18.29152637       0.02233279       0.00201998       0.00629287
H        6.18736688      18.72314977      17.97949120      -0.00439113       0.01000909       0.00417550
O        6.15700486       1.85392118       2.56578676      -0.01431132       0.03040162       0.01555538
H        6.73181997       2.61723757       2.31600478       0.01909860      -0.00840305      -0.00401891
H        5.85998684       2.11292113       3.47371929       0.01201683      -0.03183474      -0.00310347
O        8.21132583       1.50262265       9.34155039       0.00426091       0.00436150      -0.01282608
H        7.92981786       0.57727404       9.15196380      -0.02048368      -0.02233779       0.01306957
H        8.80873985       1.77962308       8.60925561       0.00205696       0.02045668      -0.00973550
O        8.92607507       2.42211093      11.69470955      -0.00445965      -0.00713423       0.00136636
H        9.56748610       1.77436265      12.05161855       0.00283072       0.01276297       0.00720363
H        8.60269014       2.01193900      10.84604174      -0.00037352       0.00323923       0.00316347
O        7.08739364       3.52016767      13.37133838       0.00018362      -0.00482113      -0.00334705
H        7.27001122       3.31787279      14.32198341       0.01123242       0.00711219      -0.00010886
H        7.70429293       2.97965708      12.81864414      -0.00939685      -0.00907763       0.02710475
O        7.26726537       4.28943106       2.73319429       0.02217298       0.00494590      -0.01482792
H        7.91691967       4.81476454       2.20220728      -0.01009862      -0.01093098      -0.00973773
H        7.69054505       4.16762263       3.61470129      -0.00955954      -0.00187986      -0.02669566
O        8.47901891       3.19481323       5.03628655       0.02446762      -0.00322865       0.00601730
H        7.63298901       2.70345207       5.19525728      -0.03016634      -0.00337858       0.01848578
H        9.02050178       2.62400978       4.43731754       0.00904354      -0.00299139      -0.02531475
O        8.69423286       6.11728141       5.96787173       0.00417659      -0.01465259      -0.00001742
H        9.21822554       6.00473164       6.79731377      -0.00786994       0.01186961       0.00142309
H        8.65203192       5.20953918       5.59401503       0.00099470       0.00859631       0.00164253
O        9.98942066       4.86991004      10.82780951      -0.00578414       0.00847454      -0.00799341
H        9.60993131       4.02919928      11.17679920       0.00866273      -0.00547756       0.00664439
H        9.77842498       5.54625397      11.51708234      -0.00496412      -0.00319789      -0.00156613
O        8.99382354       5.65313309      13.33575946       0.00287649      -0.00503515       0.00772592
H        8.33610328       4.92871500      13.43237763      -0.01942936      -0.00602376       0.00746074
H        9.74880325       5.41506801      13.92550866       0.00052956       0.00572738      -0.00457136
O        6.97849395       3.64219442      16.03010673      -0.00216213      -0.03464112       0.02384590
H        5.98578835       3.68267284      16.07482889       0.02591118       0.00280197       0.00174171
H        7.17325653       2.86788469      16.60882578      -0.01910671       0.03032800      -0.02190234
O        7.98834870       8.31975800       1.95977778      -0.00631060       0.03756872       0.02051374
H        7.00403775       8.37034421       2.05456390      -0.01465641      -0.00758050      -0.01606072
H        8.31359332       8.38959796       2.89398403       0.02057681      -0.01526040       0.01008466
O        9.06130169       8.34554358       4.42407710       0.00073253       0.00354429       0.02060365
H        8.76271025       7.60651757       5.01258637       0.02253259       0.00751524      -0.00393053
H       10.00147636       8.10966909       4.22180911       0.00624916      -0.02338013      -0.00058121
O        6.87435027       7.76855473       9.39381243      -0.00034963      -0.01313179      -0.00625836
H        7.81639808       7.87186620       9.66208796       0.00479775       0.01034457      -0.00742248
H        6.72465700       6.81254401       9.20175312      -0.00506149      -0.00310617       0.00152365
O        4.48438352       7.80758731      10.53089621      -0.00342263      -0.00217051      -0.01592946
H        4.38829254       6.96715812      10.01789439       0.02626748       0.02195433       0.02059936
H        5.46649661       7.91096303      10.56747643      -0.03853486      -0.02123936      -0.01060730
O        8.50443317       8.25313267      14.30750753      -0.00376856      -0.01107376       0.01577554
H        8.33476118       7.31015295      14.55541679       0.00238402      -0.00759056      -0.00943055
H        9.41116185       8.41243718      14.66851459      -0.00168619       0.00189706      -0.01253203
O        7.93714204       6.19360883      16.23353125      -0.00360751       0.00371637      -0.01757751
H        7.58962283       5.26801185      16.15842803       0.00102550       0.02358624       0.02096716
H        7.20459833       6.70332813      16.63950664       0.00126727      -0.01821435       0.00247468
O        6.31830188      11.30307829       3.90236727      -0.00551935       0.03736502      -0.00014717
H        6.11755069      12.06997186       3.30746503       0.00297403      -0.06727828       0.05594321
H        5.70291820      11.45117775       4.65769569       0.02356105       0.01052237      -0.02007628
O        9.15469408      11.07835841       4.75291259      -0.04171059      -0.01390798      -0.00846276
H        8.40409320      11.62311049       4.40739255       0.02990221      -0.02878431       0.01259206
H        8.90973521      10.13274519       4.60042402       0.01559312       0.01304397       0.01870753
O        6.31951317       9.63027706      15.54086644       0.00174282      -0.00758685      -0.00606154
H        5.66308631       8.89515094      15.44537252      -0.00259473       0.01266110      -0.00257746
H        7.13864189       9.26727615      15.12019552       0.00642036       0.00837385       0.00103716
O        6.33635446      11.33740322      17.94453122      -0.01408390      -0.01202787       0.01030289
H        6.30961001      10.85392253      17.08198329       0.00412052      -0.00754048      -0.00886175
H        7.10409243      10.93027264      18.41528132       0.00484316       0.01637726       0.00414348
O        8.54115729      10.58000850       0.56824274      -0.01646710      -0.00440304       0.00176012
H        8.37724636       9.73275198       1.06123941       0.01435034      -0.00076607       0.00776376
H        8.53180624      11.26792354       1.26746811      -0.00088400      -0.01632661       0.00294380
O        8.32060802      13.65613604       4.31360914       0.01532754      -0.00433503       0.00315098
H        9.19843074      14.10819975       4.25647372      -0.00053718       0.00293597      -0.00472256
H        8.04597471      13.79521191       5.25243185      -0.00796955       0.00374757      -0.00004305
O        7.84622761      13.96922878       7.02154562      -0.01495539      -0.04834561       0.02301529
H        7.68774320      13.07201761       7.39696627       0.01467851       0.05462253      -0.02783524
H        8.81783658      14.09971119       7.19087252      -0.01687507      -0.00978376      -0.00363216
O        6.71601134      14.50585436      11.30077398      -0.01924325      -0.00093411       0.00566251
H        6.33443126      15.40926901      11.43661272       0.00075193       0.00997211       0.00331103
H        7.26112069      14.33622057      12.10656207       0.01428228      -0.00537184      -0.01075763
O        8.11360653      14.87287413      15.57112783      -0.02232545       0.02054108      -0.00353743
H        8.29765832      15.48427084      16.32351336       0.01015389       0.00425893       0.01222459
H        7.13020338      14.90679351      15.47119136      -0.01381900      -0.01614767      -0.00908580
O        6.77193527      14.06271716      18.95332349       0.00731257      -0.00893019      -0.00778166
H        7.55135893      14.59072086      18.65205197      -0.00274489      -0.00509149      -0.00651738
H        6.77178569      13.23521020      18.41336865      -0.01039076      -0.00986212       0.00078953
O        7.09349076      18.21839175       2.21401683       0.01965421      -0.01226339      -0.00743016
H        6.73229225      18.04210775       1.30981700      -0.01897314      -0.02071270      -0.02113084
H        6.78486402      19.13990361       2.39923418      -0.03430694       0.04493804       0.02332230
O        6.25697639      16.18415919       7.12782730      -0.00100159       0.00179837      -0.01231213
H        6.81011937      15.36276344       7.13186372      -0.00550764       0.00280521      -0.01074099
H        6.06382118      16.35127249       6.17405610       0.00477367       0.00406818       0.00344245
O        7.29220984      17.80453384       9.21656739      -0.01492259       0.00419907       0.00646292
H        7.98541890      17.20351770       9.59051668      -0.00338490      -0.00070947      -0.01314269
H        7.00395868      17.37228079       8.37625383       0.01383114      -0.00502793       0.00954597
O        5.65936312      17.07303383      11.31782121       0.00163542      -0.01213156      -0.01033839
H        6.11156510      17.48242205      10.53842562      -0.00642492       0.01569415       0.00538454
H        4.69999487      17.24825007      11.18581624       0.00415722       0.00202748      -0.00627106
O        6.11546048      17.82372572      13.94201612       0.01284083      -0.02875387       0.00524580
H        5.77612870      17.03871106      14.43325853      -0.01138159       0.00533114       0.00395997
H        6.04021252      17.56864064      12.99330938       0.00050872      -0.00093171      -0.01396554
O        8.46998908      16.20648958      17.95218694       0.00152940      -0.00013542       0.01519348
H        9.36892078      16.59970911      18.03816141       0.00585408      -0.00617826      -0.00925173
H        7.83129992      16.95440095      18.06863642       0.00507999      -0.00641394      -0.00048300
O        9.82557847      -0.30324463       1.86873010       0.00227428      -0.01771435       0.00765943
H        8.85806579      -0.51635959       1.93774821      -0.01962931      -0.00651803       0.01051289
H       10.04101109      -0.35552371       0.91054018       0.00439928       0.01219502      -0.00233410
O       10.39307385       1.99549390       3.42440373      -0.02169824      -0.01820501       0.01108995
H       10.17060549       1.29624860       2.75753770      -0.00031027       0.00563397      -0.00010710
H       11.09174296       1.57386779       3.96884906       0.00980217       0.00991791       0.00387160
O        9.91620232       2.72435286       7.41708332       0.00135297       0.00033762      -0.00641314
H        9.40893784       2.87181203       6.58369975      -0.01272899       0.00392199       0.00535745
H       10.06725385       3.64272807       7.75484196       0.00915141      -0.01250648       0.00290906
O       11.27791189       0.92865894      15.94031934      -0.00787766       0.02993866       0.01026587
H       11.19865091       1.81944047      16.35690550       0.00109889      -0.01842908      -0.01068007
H       11.96550051       1.05514020      15.24584908      -0.00928809      -0.00624498       0.00081103
O        9.07080586       5.84574162       1.50851135       0.00992371      -0.02947974      -0.02973232
H        9.30853721       5.77733517       0.54985769      -0.00674201       0.00159795       0.02314388
H        8.72279423       6.76371357       1.62161847      -0.00730536       0.01359170      -0.00163124
O       11.17758035       4.81900004       2.90546122      -0.00125078       0.01205461      -0.00985961
H       10.86529078       3.91474967       3.14179685       0.00597090       0.00593457      -0.00071288
H       10.43996154       5.20670770       2.37035646       0.00375534      -0.01175782      -0.00299811
O       10.16408227       5.37111479       8.20261746       0.01136810      -0.01959580       0.00564404
H       11.10445587       5.63092471       8.34796647      -0.00569536       0.00633272      -0.01298315
H        9.81169014       5.33052851       9.12735810      -0.01297602      -0.00431309       0.01113626
O       12.43518985       5.15773379       9.67780187       0.01562032      -0.01192531      -0.00314566
H       11.67054068       4.86318035      10.23141459       0.00000395       0.00443231       0.01830731
H       13.10458454       5.44823753      10.34511581      -0.01318867       0.00286327       0.00231232
O       11.26622697       5.53575400      14.94314539       0.00215385       0.00128570       0.00091985
H       12.11454964       5.27934177      14.50411679       0.00406478       0.01487450      -0.00134055
H       11.33171947       6.50611076      15.10804522       0.00006125      -0.00296203      -0.01731114
O       11.28782733       3.58288629      16.94462353       0.01081969      -0.00892429       0.01447262
H       11.31817905       4.21766409      16.18614838      -0.01858674       0.00800890       0.01448242
H       10.60760017       4.00894773      17.51950893       0.01276972       0.00767142      -0.02263792
O       12.38581108       8.55125106       1.23647810       0.00294118      -0.00454718       0.01379607
H       13.22004422       8.99739571       1.53532107      -0.00091888       0.00370941      -0.01079438
H       12.66002891       7.87218554       0.57465727      -0.00355824      -0.00936803      -0.00565817
O       11.57012169       7.52406555       3.74739701       0.02454144       0.00010446      -0.00132761
H       11.83622295       7.81216235       2.83879083      -0.00296850       0.00135532      -0.00136160
H       11.54163826       6.53880623       3.70797282       0.00453246       0.00635691       0.00208917
O       11.24185218       8.41814083      14.92112081       0.00290511       0.00510309       0.00197218
H       11.42702077       9.31344224      15.30348291      -0.00516488      -0.00735392      -0.00582768
H       11.57188757       8.49877785      13.99275433      -0.00360204      -0.00039415      -0.00061326
O        9.96600045       5.68465756      17.94756530       0.01590207       0.01752089      -0.00236595
H        9.34413807       6.01179909      17.25138152      -0.00646085      -0.00715826       0.00806927
H       10.79448894       6.21504047      17.85907724      -0.00658520       0.00273933       0.01899087
O       12.57723534      12.12975950       1.28352673       0.00650097      -0.00776569      -0.02228784
H       11.99962880      11.72504941       0.59016539      -0.00659288      -0.00168568       0.01059478
H       13.48332474      11.84086810       1.03309069      -0.00116179      -0.00162849       0.01312081
O       11.62256724      12.11218226       4.01911445       0.00879349      -0.01578319       0.00776851
H       10.73198834      11.68883968       4.09477908       0.00001034       0.00182030       0.00022850
H       11.97332479      11.89317393       3.12301263       0.00037990       0.00835251       0.00858205
O       12.84674628      11.33751570       6.40523602      -0.01969239       0.05115272       0.03081884
H       12.37038517      11.74772081       7.16767317       0.01618678      -0.03133336      -0.00230149
H       12.43598538      11.73199686       5.59698270      -0.01058696      -0.01856520      -0.04051957
O       11.17723206      10.50320337      18.57837912       0.00688659       0.00219067      -0.00706893
H       10.20827056      10.51840087      18.76876639       0.01159356      -0.01288718       0.00365431
H       11.52108504       9.73512873      19.10107934      -0.01015941       0.00888730      -0.01003841
O       13.04871003      14.58857633       2.23280314       0.01275911      -0.01112198      -0.00378873
H       12.71274667      13.90147186       1.60732023       0.00525729       0.00373713       0.00055372
H       13.89842524      14.89485190       1.82451096      -0.00986333       0.00355179       0.00022331
O       10.85677911      14.62610817       4.59400913      -0.01018022       0.02220238       0.00289771
H       11.43036638      13.90860839       4.23187572      -0.00360557       0.00915335      -0.01142130
H       11.29936904      15.47320415       4.35002165       0.00787116      -0.01973885       0.02593218
O       10.47678720      13.93652722       7.19619312      -0.00888846      -0.01137691       0.00188231
H       10.91695786      14.50369644       7.87446357       0.00806069       0.00382174      -0.02584646
H       10.80051992      14.26193704       6.32132850       0.01395311       0.02384765      -0.00702655
O       10.27079652      13.33279313      15.08243809       0.02202346       0.01960382       0.01073626
H        9.39028264      13.59487832      15.45011916      -0.00620191      -0.01819683      -0.00771694
H       10.17783425      13.61483512      14.14198496      -0.01586575      -0.00506585       0.00585128
O       11.73426607      14.93422948      16.98244732      -0.00038958      -0.01468718      -0.00045192
H       11.45841480      15.87985167      16.95021203      -0.00340397      -0.00504478      -0.00487089
H       11.31303730      14.49484877      16.20692847      -0.00065402       0.01198836       0.01164978
O       11.71026122      16.81478192       2.97238543      -0.01902402      -0.01375098      -0.00300177
H       11.95331715      15.99568727       2.47140400      -0.01904731       0.01073598       0.00041770
H       10.88668964      17.17731162       2.57029384       0.00924272      -0.01865861      -0.01898692
O       11.20888010      15.68625024       9.12062330      -0.00528870       0.01639400      -0.00602409
H       11.88510812      15.45472807       9.80042959       0.00790353       0.00187972       0.00976295
H       11.56196660      16.50189211       8.68402568       0.00330667       0.00882205       0.00821383
O        8.87200317      15.95181269      10.47220361       0.00468892       0.01510027      -0.00890714
H        9.67959533      15.76220748       9.93185268      -0.00573521       0.00244178       0.00438856
H        8.26668346      15.18019181      10.36240622      -0.00242262      -0.00637954       0.01830910
O        8.91940782      14.72484385      13.01110593       0.00068036      -0.01009986       0.00729059
H        9.10783027      15.43042781      12.34819066      -0.00737234       0.01248682      -0.01070296
H        8.65753570      15.18467924      13.84639159      -0.00179237       0.00084212       0.00047733
O       11.22649231      17.69519725      17.67779898       0.00521732      -0.00168911      -0.01731733
H       12.18522813      17.72669274      17.92196739      -0.00861841      -0.00352380       0.01360477
H       11.15854439      18.42092883      17.00487912      -0.01346062       0.00312946       0.00141785
O       14.24017398       1.73402859       2.62299317      -0.00381029      -0.00983654       0.00203801
H       14.03364567       1.54530678       3.57235243      -0.01038685       0.00768064       0.00567453
H       13.97606587       0.90408843       2.15127623       0.01050302      -0.00727065      -0.00233038
O       14.12984492       1.24155159       5.25114649       0.00497222      -0.00396624      -0.01037043
H       14.68315607       1.98879008       5.59117978      -0.00509237      -0.00253956      -0.01028607
H       13.37706021       1.18468956       5.88812932      -0.00090891       0.01646606       0.00308497
O       12.34986214       1.40940621       7.30877674      -0.00142766      -0.00726996      -0.00090738
H       11.45996793       1.84093073       7.30481208       0.00754148       0.00500188      -0.00062633
H       12.93306378       2.04187788       7.80061235      -0.01655380       0.00016446      -0.01434942
O       14.54222332       0.82398592      11.71810204       0.00618548      -0.00315991       0.01594321
H       14.39850743       0.12396931      11.03598503      -0.01415789       0.00082058       0.00980702
H       14.95663136       1.58938915      11.24916264      -0.00307940       0.00942128       0.00281401
O       13.46199592       1.57735236      14.14156012       0.02143324       0.00538966      -0.00750330
H       13.53279255       1.36715559      13.17665309      -0.01145276      -0.00053309       0.00422312
H       14.13154326       0.95502973      14.51512102      -0.00976468       0.00183368       0.00644420
O       16.01292881       3.43406748      17.10329640      -0.00251856       0.00317541       0.00668064
H       16.08216170       2.65819781      16.49166289       0.00340599      -0.00620441      -0.00723020
H       15.07955432       3.48984383      17.42578636       0.00234362       0.01245186      -0.00697908
O       13.69198068       4.24514888       1.89226941       0.00127636       0.00487122      -0.01178842
H       13.74191916       3.28459460       2.13059179      -0.01133058       0.01538116      -0.00595452
H       12.80672018       4.53871770       2.22072271       0.00771304      -0.00173416      -0.00184840
O       15.50365032       3.44408211       6.04119396       0.00219895       0.01002938       0.00955176
H       15.52569492       4.12219734       5.32156304       0.01407799       0.00531437       0.01672953
H       14.93706532       3.80420679       6.76827625      -0.00711329       0.00311233      -0.00313143
O       13.99933447       3.37159163       8.28495785      -0.01242626      -0.00264548       0.00990626
H       13.40258465       4.03407281       8.71658830      -0.01809066       0.00764393      -0.01692729
H       14.66467017       3.17429664       8.98999067       0.02247971      -0.00215284       0.00180029
O       14.30088395       5.31258872      11.62471547       0.00293395      -0.01042693       0.02268134
H       14.01038684       5.07622366      12.53734489      -0.00826438       0.00577448      -0.00528981
H       14.91269541       6.08844620      11.72466988      -0.00058483      -0.00087891      -0.01139383
O       13.65215424       4.43716119      14.19266894      -0.00418403      -0.00744983      -0.02730692
H       14.37701327       4.77448428      14.77097800      -0.00032298      -0.00678398       0.02023605
H       13.67215411       3.44941528      14.26169056       0.01212617       0.01757492       0.01405557
O       13.64204484       4.34627280      18.09052908       0.00000386      -0.02182232       0.00483883
H       13.65977429       4.25868354      19.07822743       0.00174790       0.00547005      -0.00524489
H       12.82139046       3.87978055      17.79033418      -0.01050263       0.01205689       0.00337770
O       14.52442573       9.92338058       2.27645900       0.00674421      -0.00316815       0.01012387
H       15.22088517      10.20599220       1.62767500      -0.00134591      -0.01387239      -0.00027542
H       14.26035092      10.77621758       2.70192732      -0.00767133       0.01193030       0.00125547
O       15.53728649       9.16864158       4.73588068      -0.00767560      -0.00047384      -0.00184127
H       14.75840103       8.77965028       5.21043934       0.00943145      -0.01373070       0.01022426
H       15.23621538       9.24024582       3.79677220       0.00490057       0.00315268      -0.01218324
O       13.16445957       8.61776637       5.86867069      -0.00402543       0.00751726      -0.01560047
H       12.55843931       8.27113535       5.17184368       0.00650574      -0.00761953       0.00177674
H       12.86709554       9.54311003       6.04262005       0.01009365      -0.01567121       0.00414318
O       16.05014957       7.33784701      11.71649272      -0.00556224      -0.00119643      -0.00346896
H       16.72077056       7.10604723      12.40156836       0.00416607      -0.00002304      -0.00898989
H       16.54330241       7.21536961      10.86615327       0.00137310      -0.00695588       0.01131953
O       12.52947022       6.83738865      17.94850221      -0.02985437      -0.01461599       0.01564959
H       13.06986310       6.00579567      17.89184097      -0.00011621       0.03272951      -0.01228860
H       12.71578773       7.33307684      17.12337846       0.00912099      -0.01110601      -0.02141556
O       14.48216388      12.45426527       3.36271940       0.00997040      -0.00717039       0.01475393
H       13.93262311      13.26228285       3.21941977      -0.00234172      -0.00323173       0.00977162
H       14.62032981      12.37123420       4.33823932      -0.00989934       0.01632597       0.00330258
O       15.41965807      11.71407482       5.73985917      -0.01382513      -0.01780060      -0.01891298
H       14.60214132      11.66487753       6.29155038       0.00099122      -0.00239951       0.01546901
H       15.56717335      10.78189514       5.44254449       0.01150091       0.01135147       0.00392253
O       14.14970128      12.94867005      11.68774376      -0.01609846       0.00817163      -0.00252381
H       14.09571242      12.58245324      12.60909459       0.00116322      -0.00885891       0.00247265
H       13.92322832      12.19220544      11.09876143       0.00620868      -0.00250660      -0.00383426
O       14.18827079      11.96837034      14.22559084      -0.00526054       0.01497749      -0.00861667
H       14.75404317      12.57052611      14.76988674       0.00316623      -0.01019048       0.00512501
H       13.44913597      11.69194016      14.81486892       0.00302363       0.00796741       0.00046241
O       11.75563606      11.02054126      15.81188865       0.00006873       0.00654562       0.00222167
H       11.13477876      11.74459966      15.54826188      -0.00418157      -0.00809351      -0.01380105
H       11.66121578      10.96149891      16.79330279       0.00339071      -0.00439630       0.00954433
O       15.49799790      14.89783364       1.01110791      -0.01337937      -0.01861779       0.01180479
H       16.13889947      14.24049422       1.37010335       0.01501847       0.01056374       0.00079405
H       15.23225401      14.58390283       0.11113248      -0.00185648       0.00659189      -0.00586907
O       13.60555087      16.04184564       5.87596497       0.00154616       0.01789798       0.01473724
H       14.02030199      16.61872041       5.18936929      -0.05027642       0.00185970       0.02490320
H       13.23274989      16.67403598       6.53738226       0.00493739      -0.01957554      -0.05664132
O       12.95658684      15.36187954      11.22815688       0.02033018      -0.02325797       0.01769087
H       12.49364489      15.57601996      12.06425485       0.00315530      -0.00183049       0.00281224
H       13.35603118      14.46776282      11.38897397       0.00946771       0.00234745       0.00363073
O       15.92685163      13.74659836      15.51418248      -0.01928988      -0.01084767      -0.00251582
H       15.46460898      14.17451249      16.27803646       0.00678884       0.00544772      -0.00034251
H       16.12290017      14.50628712      14.91157602      -0.00413863      -0.00004770       0.00324660
O       14.42413957      14.96886214      17.49987538       0.00204828       0.00348246      -0.01601280
H       13.47024876      14.77734237      17.31476534       0.00387166       0.00874568       0.00651283
H       14.43540239      15.95294265      17.61034898      -0.01166004      -0.00431868       0.00723460
O       13.83527649      18.14010626       1.92898321       0.00902376       0.00360064       0.00630409
H       12.99544925      17.77603131       2.30438521       0.00168487      -0.00312831      -0.00221865
H       14.49723023      17.89755580       2.62483126      -0.01838747      -0.01179924       0.01579241
O       15.07355861      17.80259820       4.25763873      -0.00333087       0.00216044       0.00088301
H       16.05254310      17.69020462       4.23053591       0.01628690       0.00672135      -0.00791881
H       14.91435150      18.64344257       4.75101523       0.01134160      -0.01649443       0.00352638
O       12.64918977      17.67910442       7.96856373      -0.00640366       0.00958299      -0.00158065
H       13.36507775      17.72653162       8.64919766      -0.00289416       0.00204357       0.02194870
H       12.42196613      18.62194560       7.78114570      -0.00404710      -0.00676240       0.01518773
O       14.36126603      17.53395893      10.09813047       0.00601839       0.01249960      -0.00391554
H       15.26271224      17.22881455       9.82060547       0.00405353      -0.00191534       0.01865605
H       13.98561942      16.76515197      10.59048482       0.00293503       0.00578546       0.00167737
O       15.54317135      18.65991621      13.97249284       0.01433133       0.00398734      -0.03489536
H       15.42225109      18.91140195      13.02432446       0.00196994      -0.01259900       0.02371529
H       15.82142837      17.71115790      13.97237246      -0.00992462       0.01132757       0.00420191
O       14.10207147      17.62934243      18.20104441      -0.00680923      -0.00133343       0.00705391
H       14.80580553      18.26246510      17.91869509      -0.00028962       0.00298282      -0.01098236
H       14.14095440      17.67878337      19.18915846      -0.00968709       0.00262849       0.00450369
O       16.94306266       2.08775754       2.68089648      -0.00578396       0.00078831      -0.00279211
H       15.97396089       1.89031924       2.62477460      -0.00812059       0.00873007      -0.00499608
H       17.23111710       2.23877065       1.74438307      -0.00285947      -0.01223905      -0.00147642
O       18.91921098       2.01734181       4.62733378      -0.01757185       0.00456276       0.00243712
H       18.62521509       2.47916969       5.44900438       0.01330997      -0.00146675       0.01043679
H       18.14999299       2.08800362       4.01171919       0.01225164      -0.00988719      -0.00490656
O       16.94404994       1.40138689      15.55483645      -0.00191719       0.01658614      -0.02098852
H       16.46522631       0.82994464      14.90253867       0.00726877      -0.01089397       0.00892655
H       17.11307397       0.78048907      16.30746570      -0.01800463      -0.02228392       0.00952331
O       17.63367265       2.37237173      19.00338079      -0.00892417       0.00335810      -0.00301011
H       18.58159780       2.59307606      18.83612547       0.00734538      -0.00167478      -0.00333689
H       17.11752617       2.97895855      18.41833802      -0.00001366       0.00761672       0.00900605
O       15.96648575       4.73984364       3.54868338      -0.01162779      -0.00874276       0.00386706
H       16.44681126       3.94300092       3.21976437       0.00529422       0.00356704      -0.00053384
H       15.14567510       4.75366320       2.99627934       0.00184474      -0.00471045      -0.01361075
O       18.10810648       3.52618025       6.69184669      -0.00179796       0.00561865      -0.00253650
H       18.46750774       3.21722644       7.55802197       0.01157417       0.00107289       0.00161338
H       17.13384068       3.34757144       6.69062586      -0.00064147       0.00213675      -0.00521225
O       15.53411645       3.12629886      10.56157022      -0.00864515      -0.02012320       0.01991159
H       16.49078724       3.30661351      10.73380028      -0.00970557       0.01702866      -0.00645687
H       15.08458993       3.89387077      10.99927074       0.01601343       0.01006931      -0.01822522
O       17.94936691       3.97806669      11.63246931       0.00322098       0.00306843       0.00188771
H       17.59055825       4.69700552      12.21233432      -0.01447797      -0.00084060       0.00491536
H       18.23924404       3.30363871      12.29485703      -0.00468862      -0.00004727      -0.00099880
O       15.82200518       5.61598810      15.62315763      -0.00493367      -0.00277256       0.00593202
H       15.85205644       6.43531333      16.16066465       0.00943513      -0.04787087      -0.01006928
H       16.07508501       4.88940206      16.25089395      -0.00559793       0.03197373       0.00245161
O       17.67620921       6.96868924       2.34112179      -0.00829597      -0.01533156       0.01938183
H       17.07565273       6.30157718       2.74360077      -0.00835806      -0.01715545      -0.01530296
H       17.97077713       7.53139364       3.09467462       0.00602956       0.01219948      -0.01373678
O       18.20853762       8.83915041       4.36920273       0.00183113       0.00160109       0.01038931
H       18.75872391       8.79905286       5.18867838       0.00118168       0.00296205      -0.00649739
H       17.27758437       8.94990493       4.68277101       0.01178110       0.00607671      -0.00230347
O       17.02500097       6.07260049       6.96088680       0.00338992      -0.00209799      -0.02046679
H       17.63161973       5.33983026       6.70122588      -0.02155501       0.00741579       0.01451216
H       17.01881958       6.68559865       6.19703912       0.00329732      -0.00658083       0.00355461
O       17.62119350       6.76132383       9.56907333      -0.02998286      -0.01805019      -0.02260075
H       18.25990205       7.49959964       9.42336792       0.01496296       0.03040108      -0.00273292
H       17.27930666       6.55186530       8.66625483       0.01835300      -0.00202118       0.03615646
O       17.55512992       5.89847586      13.52421304       0.00397204      -0.00848424       0.01385909
H       18.46010307       5.83743974      13.91141859       0.01035693      -0.01284450      -0.00184269
H       16.94557374       5.74414547      14.28470080       0.00655441       0.00337444      -0.00553007
O       16.06428922      11.25688759       0.55816340       0.01012088       0.01443237       0.00497176
H       16.46762808      11.98521570       1.08483350       0.00637305      -0.03242494      -0.04053123
H       16.82576985      10.90948959       0.03043364      -0.00810998       0.01871427       0.01435845
O       19.02729596      11.28659807       3.12182045      -0.00585682       0.00600775      -0.01155330
H       19.41647017      11.58279697       3.98160540       0.00470359       0.01424804       0.01997556
H       18.72175122      10.37034257       3.33446434       0.00254625      -0.01241648      -0.00845537
O       17.41185689      13.63880657       5.51500231       0.00103051      -0.02216736      -0.01229376
H       16.76669947      12.91020645       5.68607869       0.01039821      -0.01391085      -0.00342388
H       17.39641614      13.74573350       4.53714285      -0.00140548      -0.00012432       0.00474449
O       18.01117173      10.56305233      13.30601497      -0.00236100      -0.00909472      -0.01728008
H       17.05571252      10.39211874      13.18226269       0.00760369      -0.01246989      -0.01328667
H       18.07102510      11.02920625      14.17540399       0.02371562       0.00572020       0.00293642
O       18.42953813      10.51105957      18.21473417      -0.00608562      -0.01356033      -0.00128547
H       18.34709921      10.80414989      17.27522213       0.00641751       0.02756148      -0.01658757
H       18.44047684       9.51840682      18.21671071      -0.01975222      -0.00929300       0.01165174
O       16.98074798      13.03669343       2.54640712      -0.00800885      -0.00579042       0.00527612
H       17.70275967      12.38677714       2.74002658       0.01233860      -0.00174544      -0.01217725
H       16.16415721      12.68635973       2.97995722      -0.00259442       0.00839104       0.00050894
O       16.15448443      15.74460463       6.78788683       0.02615029      -0.02551868       0.00919233
H       15.20287458      15.67564402       6.53232631       0.03351512      -0.00484588      -0.04129333
H       16.61690180      15.01121579       6.31679752       0.00878917       0.02091984       0.02827640
O       16.38370487      14.58675600      11.40483159       0.02808097      -0.00676317       0.02234867
H       16.31110615      15.07475080      10.54608580      -0.01577050      -0.00073561       0.01341404
H       15.68998421      13.88531597      11.39844105      -0.00298088       0.00592380      -0.01066107
O       18.15493979      11.95858337      15.74123189      -0.00377851      -0.00055367       0.00165542
H       18.94052814      12.55661746      15.68135475      -0.01254539      -0.01034207       0.00871423
H       17.38048703      12.57446540      15.77339297       0.01015963       0.01074193      -0.00149130
O       17.29191717      16.99987438       0.57138716      -0.00380314      -0.00577779       0.00176801
H       17.41699574      17.36100214       1.47994321       0.00055889       0.00379991      -0.00184882
H       16.60126407      16.30575377       0.68602471       0.00443033      -0.00434579       0.00175327
O       17.53228512      18.13674181       3.12595726       0.00091397       0.01479661       0.00456860
H       18.46730088      18.05166513       3.42963755       0.00918637       0.00869561       0.00830217
H       17.41327252      19.10418160       2.97610622       0.02468828       0.01227574      -0.01364540
O       16.60106912      16.26955798       9.31512554       0.02014826      -0.00075155       0.01176146
H       17.54260300      16.55832212       9.35954899       0.01309350       0.01178541       0.04433125
H       16.45280998      16.02221126       8.36203456       0.01179253      -0.00935184       0.01242832
O       16.51638471      15.96134906      13.82643986      -0.00074688       0.00948233       0.00335968
H       16.39784776      15.57932128      12.92107164       0.00216839       0.00761421       0.00931519
H       17.49976535      15.99907213      13.93684295      -0.00548807      -0.00211824       0.00084145
O       16.60793997      18.97932241      17.85478695       0.00264336       0.00333420      -0.00309981
H       16.92450263      19.72483567      18.41861269      -0.00221568       0.00827660       0.00640054
H       16.97311133      18.17888894      18.31425069      -0.01147529      -0.00840157       0.01074714
