27
Lattice="6.2099 0.0 0.0 0.0 6.2099 0.0 0.0 0.0 6.2099" Properties=species:S:1:pos:R:3 pbc="T T T"
O        3.07150000       0.82592000       0.01482600
H        3.76570000       1.35700000       0.26729000
H        2.88790000       0.14807000       0.58616000
O        5.03560000       0.90522000       4.60070000
H        4.53600000       0.26786000       5.18170000
H        4.96240000       0.60288000       3.71000000
O        1.62050000       5.78620000       3.22920000
H        1.99000000       0.22038900       3.75460000
H        1.83910000       5.02080000       3.84200000
O        1.83660000       1.81040000       3.98280000
H        1.28320000       1.75910000       4.81180000
H        2.47560000       2.48210000       3.92800000
O        4.23910000       3.45470000       4.13470000
H        4.92390000       4.10780000       3.88750000
H        4.20240000       2.45320000       4.05120000
O        5.57260000       0.36527000       1.91970000
H        0.16450000       0.98596000       1.94680000
H        5.46150000       0.30740000       0.93814000
O        4.62660000       3.25650000       0.94254000
H        5.46250000       3.21850000       1.23010000
H        4.12650000       3.23790000       1.78180000
O        1.46790000       3.00640000       0.11333000
H        2.04510000       3.79760000       0.07788200
H        1.98150000       2.22140000       6.04011000
O        2.88960000       4.33590000       0.05130000
H        3.37220000       4.26740000       5.50111100
H        2.52560000       5.16450000       6.18981100
